 Entering Gaussian System
 *********************************************
 Gaussian 98:
 frequency output generated by the xtb code
 *********************************************
                         Standard orientation:
 --------------------------------------------------------------------
  Center     Atomic     Atomic              Coordinates (Angstroms)
  Number     Number      Type              X           Y           Z
 --------------------------------------------------------------------
    1          7             0        0.778551   -0.061225   -0.547302
    2          1             0        1.220319    0.737879   -0.116643
    3          6             0       -0.672225   -0.186921   -0.336252
    4          1             0       -1.210342    0.217238   -1.197566
    5          6             0       -1.106594   -1.646400   -0.122926
    6          6             0       -1.112882    0.661094    0.864931
    7          1             0       -2.181590   -1.679197    0.066937
    8          1             0       -0.881132   -2.230675   -1.012763
    9          1             0       -0.585808   -2.087892    0.731302
   10          8             0       -2.165876    1.270831    0.856888
   11          6             0        1.399888   -0.566590   -1.666385
   12          6             0        2.847163   -0.134800   -1.848516
   13          1             0        3.272897    0.356508   -0.971206
   14          1             0        2.905776    0.546614   -2.701080
   15          1             0        3.441676   -1.016018   -2.091834
   16          8             0        0.846049   -1.308757   -2.455276
   17          7             0       -0.252692    0.653420    1.930350
   18          1             0        0.510835   -0.005632    1.911969
   19          6             0       -0.584288    1.296534    3.193285
   20          1             0        0.285345    1.823170    3.592413
   21          1             0       -1.383557    2.009905    3.001164
   22          1             0       -0.935201    0.573082    3.936521
 --------------------------------------------------------------------
     1 basis functions        1 primitive gaussians
     1 alpha electrons        1 beta electrons

 Harmonic frequencies (cm**-1), IR intensities (km*mol⁻¹),
 Raman scattering activities (A**4/amu), Raman depolarization ratios,
 reduced masses (AMU), force constants (mDyne/A) and normal coordinates:
                      1                      2                      3
                        a                      a                      a 
 Frequencies --    80.6633                95.7822               122.3437
 Red. masses --    12.2636                12.0863                 9.4873
 Frc consts  --     0.0000                 0.0000                 0.0000
 IR Inten    --    17.1989                 3.0870                 5.5194
 Raman Activ --     0.0000                 0.0000                 0.0000
 Depolar     --     0.0000                 0.0000                 0.0000
 Atom AN      X      Y      Z        X      Y      Z        X      Y      Z
   1   7    -0.11   0.18  -0.10    -0.02   0.08  -0.07    -0.17  -0.19   0.09
   2   1    -0.07   0.11  -0.11    -0.02   0.05  -0.06    -0.06  -0.06   0.07
   3   6    -0.11   0.17  -0.12    -0.00   0.00   0.00    -0.16  -0.21   0.01
   4   1    -0.04   0.10  -0.01    -0.02  -0.03  -0.00    -0.04  -0.06  -0.00
   5   6    -0.18   0.17  -0.31     0.09   0.00   0.19    -0.19  -0.20   0.01
   6   6    -0.06   0.01   0.02     0.04   0.11  -0.05    -0.04  -0.08  -0.04
   7   1    -0.05   0.06  -0.09     0.03  -0.01   0.07    -0.06  -0.06  -0.02
   8   1    -0.06   0.07  -0.11     0.02  -0.02   0.07    -0.04  -0.06   0.01
   9   1    -0.06   0.02  -0.10     0.05   0.03   0.06    -0.07  -0.06   0.01
  10   8    -0.15  -0.14   0.24     0.23   0.44  -0.20     0.13   0.21  -0.08
  11   6     0.04  -0.08   0.09    -0.01  -0.04  -0.01    -0.02   0.05   0.06
  12   6    -0.02   0.12   0.07    -0.12   0.24  -0.23    -0.08   0.31   0.25
  13   1    -0.01   0.02   0.03    -0.01   0.05  -0.07    -0.06   0.07   0.11
  14   1    -0.05   0.07   0.05    -0.12   0.11  -0.04    -0.04   0.14   0.11
  15   1     0.02   0.07  -0.02    -0.00   0.11  -0.14     0.03   0.13   0.04
  16   8     0.26  -0.45   0.30     0.08  -0.35   0.21     0.16   0.08  -0.08
  17   7     0.09   0.01  -0.11    -0.10  -0.17   0.05     0.02  -0.18  -0.09
  18   1     0.06   0.04  -0.08    -0.06  -0.08   0.01    -0.06  -0.12  -0.01
  19   6     0.23  -0.07  -0.02    -0.16  -0.31   0.11     0.33   0.16  -0.17
  20   1     0.06   0.03  -0.06    -0.04  -0.15   0.09     0.18  -0.10  -0.05
  21   1     0.01  -0.06   0.04    -0.00  -0.04   0.03     0.23   0.18  -0.08
  22   1     0.15  -0.04   0.01    -0.12  -0.11  -0.02    -0.05   0.13  -0.03
                      4                      5                      6
                        a                      a                      a 
 Frequencies --   140.8393               152.7351               170.2304
 Red. masses --     8.8262                 2.8783                 2.9714
 Frc consts  --     0.0000                 0.0000                 0.0000
 IR Inten    --     1.8242                 0.2431                 0.0635
 Raman Activ --     0.0000                 0.0000                 0.0000
 Depolar     --     0.0000                 0.0000                 0.0000
 Atom AN      X      Y      Z        X      Y      Z        X      Y      Z
   1   7    -0.23   0.33  -0.24    -0.02   0.15  -0.09    -0.04   0.04  -0.05
   2   1    -0.08   0.10  -0.07    -0.00   0.04  -0.03    -0.01   0.01  -0.02
   3   6    -0.15   0.01  -0.07     0.00   0.07  -0.02    -0.03   0.01  -0.02
   4   1    -0.11  -0.06  -0.01    -0.02   0.02   0.01    -0.02  -0.04  -0.02
   5   6     0.27  -0.07   0.21     0.11   0.03  -0.05     0.09  -0.00   0.18
   6   6    -0.09   0.04  -0.06    -0.01  -0.02   0.03    -0.03   0.05  -0.06
   7   1     0.09  -0.10   0.10     0.04  -0.02   0.00     0.03  -0.02   0.07
   8   1     0.09  -0.04   0.08     0.03   0.02  -0.02     0.02  -0.03   0.07
   9   1     0.14   0.05   0.06     0.05   0.01  -0.02     0.05   0.04   0.06
  10   8    -0.04   0.16   0.01    -0.09  -0.15   0.13    -0.10  -0.04  -0.02
  11   6    -0.06   0.08  -0.02    -0.01   0.00  -0.01    -0.01  -0.03   0.00
  12   6     0.06  -0.21   0.30     0.02  -0.10  -0.01     0.03  -0.10   0.15
  13   1    -0.06   0.07   0.05     0.01  -0.01  -0.01     0.13  -0.48   0.24
  14   1     0.15  -0.21  -0.02     0.03  -0.05  -0.02    -0.04   0.39   0.37
  15   1     0.01  -0.13   0.31    -0.01  -0.05   0.02    -0.08   0.05  -0.45
  16   8     0.01   0.05  -0.04    -0.02  -0.05   0.04    -0.03   0.06  -0.07
  17   7    -0.02  -0.11  -0.13     0.07   0.11  -0.03     0.06   0.14  -0.14
  18   1    -0.01  -0.03  -0.08    -0.02  -0.01   0.02     0.02   0.04  -0.06
  19   6     0.18  -0.19  -0.03    -0.06   0.01  -0.00     0.04  -0.10  -0.02
  20   1     0.05  -0.02  -0.06     0.12  -0.44   0.27     0.01  -0.03   0.01
  21   1     0.01  -0.09   0.05     0.34   0.37  -0.09    -0.00  -0.03   0.04
  22   1     0.14  -0.08   0.01    -0.52   0.06  -0.17     0.03  -0.07  -0.04
                      7                      8                      9
                        a                      a                      a 
 Frequencies --   185.3307               206.4974               246.9189
 Red. masses --     9.8429                12.6879                10.8021
 Frc consts  --     0.0000                 0.0000                 0.0000
 IR Inten    --     2.7322                 9.5639                 7.6063
 Raman Activ --     0.0000                 0.0000                 0.0000
 Depolar     --     0.0000                 0.0000                 0.0000
 Atom AN      X      Y      Z        X      Y      Z        X      Y      Z
   1   7    -0.01  -0.23   0.01     0.18   0.00   0.39    -0.11  -0.02   0.09
   2   1     0.01  -0.08   0.03     0.01   0.05   0.06    -0.05   0.01   0.01
   3   6    -0.03  -0.02  -0.01     0.10   0.01  -0.04    -0.06  -0.13   0.03
   4   1     0.01  -0.03  -0.02     0.10  -0.02  -0.07    -0.03  -0.02   0.02
   5   6    -0.29   0.10   0.31     0.05   0.03  -0.01     0.16  -0.26  -0.35
   6   6     0.05   0.11  -0.08    -0.11   0.02  -0.17     0.12  -0.01   0.01
   7   1    -0.09   0.10   0.07     0.01   0.02  -0.04     0.06  -0.15  -0.06
   8   1    -0.09  -0.05   0.14     0.04  -0.01   0.02     0.04   0.03  -0.17
   9   1    -0.13   0.06   0.14    -0.02   0.02   0.03     0.11  -0.14  -0.17
  10   8    -0.07  -0.10   0.03    -0.17  -0.07  -0.25     0.24   0.15   0.03
  11   6     0.04  -0.04  -0.05    -0.00   0.08   0.23    -0.13  -0.00   0.10
  12   6     0.01   0.13   0.07    -0.03  -0.01  -0.10    -0.15   0.04   0.16
  13   1    -0.07   0.17  -0.02     0.04   0.04  -0.08    -0.07   0.02   0.05
  14   1     0.02  -0.07  -0.06    -0.05  -0.05  -0.07    -0.04   0.01   0.04
  15   1     0.06   0.04   0.16    -0.03  -0.02  -0.01    -0.02   0.02   0.07
  16   8     0.16   0.01  -0.18    -0.31   0.18   0.40    -0.19   0.01   0.13
  17   7     0.26   0.37  -0.23    -0.02  -0.01  -0.27     0.35   0.36  -0.13
  18   1     0.05   0.08  -0.07    -0.02  -0.02  -0.12     0.03   0.02   0.03
  19   6    -0.05  -0.29   0.03     0.26  -0.20  -0.10    -0.18  -0.07  -0.03
  20   1    -0.05  -0.11   0.12     0.12  -0.12  -0.04    -0.13   0.04   0.08
  21   1    -0.03  -0.08   0.07     0.10  -0.01   0.05    -0.11  -0.09  -0.02
  22   1    -0.03  -0.20  -0.11     0.08  -0.08  -0.05    -0.03  -0.11  -0.08
                     10                     11                     12
                        a                      a                      a 
 Frequencies --   276.7113               292.2126               363.8783
 Red. masses --     1.3425                10.7281                11.8824
 Frc consts  --     0.0000                 0.0000                 0.0000
 IR Inten    --     0.0987                 5.4175                 8.1605
 Raman Activ --     0.0000                 0.0000                 0.0000
 Depolar     --     0.0000                 0.0000                 0.0000
 Atom AN      X      Y      Z        X      Y      Z        X      Y      Z
   1   7    -0.03   0.03  -0.03    -0.01   0.19  -0.01     0.08  -0.34   0.19
   2   1    -0.00  -0.00  -0.00    -0.03   0.07  -0.00     0.09  -0.14   0.07
   3   6    -0.02  -0.00   0.01     0.01   0.01  -0.11    -0.02   0.19  -0.06
   4   1    -0.00  -0.01  -0.00    -0.00  -0.01  -0.03     0.05   0.05  -0.06
   5   6     0.06  -0.03  -0.05    -0.17   0.11   0.19     0.32   0.13  -0.01
   6   6     0.00  -0.00   0.03     0.18  -0.15  -0.07    -0.14   0.14  -0.04
   7   1    -0.08  -0.08  -0.58    -0.05   0.11   0.07     0.10  -0.08   0.04
   8   1     0.54  -0.10   0.18    -0.09  -0.05   0.09     0.12   0.06  -0.01
   9   1    -0.40   0.15   0.32    -0.07   0.06   0.08     0.18   0.10  -0.03
  10   8     0.03   0.04   0.09     0.24  -0.11   0.23    -0.15   0.21   0.47
  11   6    -0.03   0.00  -0.01     0.00   0.11   0.06    -0.00  -0.18   0.04
  12   6    -0.03  -0.02  -0.01     0.02   0.01   0.03    -0.08   0.04   0.00
  13   1    -0.00  -0.02  -0.00     0.02  -0.02   0.01    -0.04   0.05  -0.02
  14   1    -0.00   0.00   0.00     0.02   0.01   0.02    -0.08  -0.00  -0.01
  15   1    -0.01  -0.01  -0.01    -0.02  -0.01  -0.01     0.03   0.05   0.01
  16   8    -0.02  -0.02  -0.01    -0.13   0.09   0.21     0.06  -0.04  -0.17
  17   7     0.04   0.02   0.01     0.22  -0.30  -0.12    -0.06  -0.13  -0.16
  18   1     0.01   0.00   0.01     0.05  -0.09   0.02    -0.03  -0.05  -0.06
  19   6    -0.01   0.00   0.00    -0.25   0.01  -0.41    -0.08  -0.03  -0.24
  20   1    -0.01   0.01   0.01    -0.14   0.09  -0.08    -0.03   0.01  -0.07
  21   1    -0.01  -0.01  -0.01    -0.09  -0.06  -0.28    -0.03  -0.02  -0.11
  22   1    -0.00  -0.00  -0.00    -0.11   0.06  -0.08    -0.03   0.02  -0.05
                     13                     14                     15
                        a                      a                      a 
 Frequencies --   373.0308               444.5901               526.4436
 Red. masses --    10.7093                 3.4344                 9.2869
 Frc consts  --     0.0000                 0.0000                 0.0000
 IR Inten    --    15.6838               121.2463                37.1026
 Raman Activ --     0.0000                 0.0000                 0.0000
 Depolar     --     0.0000                 0.0000                 0.0000
 Atom AN      X      Y      Z        X      Y      Z        X      Y      Z
   1   7     0.08  -0.08  -0.05     0.12  -0.12   0.28     0.15   0.03  -0.26
   2   1     0.05   0.00  -0.08    -0.25   0.47  -0.54     0.14  -0.17   0.15
   3   6     0.18   0.18  -0.07     0.00  -0.08   0.02     0.11  -0.17  -0.06
   4   1     0.05   0.07  -0.01     0.01  -0.01  -0.00     0.05  -0.10  -0.05
   5   6     0.15   0.25   0.01    -0.04  -0.06  -0.01    -0.08  -0.20  -0.03
   6   6     0.19   0.00  -0.05     0.01   0.01   0.01    -0.03   0.10  -0.11
   7   1     0.04   0.08  -0.01    -0.01  -0.00  -0.00    -0.03   0.01  -0.01
   8   1     0.05   0.04   0.03    -0.02  -0.02   0.00    -0.06  -0.06  -0.01
   9   1     0.04   0.10   0.03    -0.02  -0.02   0.00    -0.06  -0.10  -0.01
  10   8     0.08  -0.25  -0.27     0.04   0.10   0.08    -0.02   0.15   0.28
  11   6    -0.17  -0.16  -0.10    -0.03   0.02  -0.06     0.14  -0.03  -0.15
  12   6    -0.25   0.18   0.36    -0.02  -0.03   0.00     0.23   0.13   0.06
  13   1    -0.24   0.08   0.17    -0.01  -0.03   0.02    -0.05   0.04   0.07
  14   1    -0.03   0.08   0.13     0.04  -0.01   0.00     0.11   0.08   0.05
  15   1     0.06   0.12   0.17    -0.03  -0.03   0.01     0.15   0.08   0.06
  16   8    -0.30  -0.15  -0.08     0.06   0.04  -0.12    -0.34  -0.05   0.18
  17   7    -0.01  -0.12   0.11    -0.12  -0.08   0.02    -0.23  -0.01  -0.02
  18   1     0.07   0.06   0.00     0.28   0.34  -0.18     0.23   0.34  -0.14
  19   6     0.03   0.02   0.05    -0.04   0.00  -0.02    -0.01   0.01   0.02
  20   1     0.02  -0.00   0.00    -0.00  -0.03   0.01     0.03  -0.04  -0.01
  21   1     0.03   0.02  -0.01     0.01   0.02  -0.01     0.01   0.03   0.06
  22   1    -0.01   0.03   0.03    -0.05   0.01  -0.02    -0.00  -0.01  -0.00
                     16                     17                     18
                        a                      a                      a 
 Frequencies --   541.7508               596.9412               610.4831
 Red. masses --     6.5588                 8.7399                10.1000
 Frc consts  --     0.0000                 0.0000                 0.0000
 IR Inten    --    36.6037                11.8919                18.6157
 Raman Activ --     0.0000                 0.0000                 0.0000
 Depolar     --     0.0000                 0.0000                 0.0000
 Atom AN      X      Y      Z        X      Y      Z        X      Y      Z
   1   7    -0.30  -0.02   0.00     0.04  -0.04   0.11     0.11   0.38  -0.10
   2   1     0.03  -0.19   0.23     0.13  -0.18   0.21     0.14   0.01   0.02
   3   6    -0.21   0.07  -0.15     0.10   0.03   0.27     0.22  -0.02   0.43
   4   1    -0.07   0.04  -0.02     0.04   0.01   0.07     0.03  -0.04   0.12
   5   6     0.04   0.05  -0.01     0.01   0.02   0.00    -0.04  -0.06   0.02
   6   6     0.19   0.02  -0.08     0.00   0.07   0.05    -0.09   0.03   0.14
   7   1     0.02  -0.07   0.03    -0.00   0.02  -0.03    -0.03   0.09  -0.06
   8   1     0.05   0.01   0.01     0.01   0.08  -0.05    -0.04   0.08  -0.07
   9   1     0.08   0.10   0.00    -0.02  -0.08  -0.03    -0.12  -0.20  -0.03
  10   8     0.15  -0.12  -0.12    -0.05   0.01  -0.07    -0.10   0.07  -0.08
  11   6     0.01  -0.07   0.30    -0.27   0.48  -0.27     0.02  -0.33   0.21
  12   6    -0.10  -0.07  -0.06    -0.16  -0.04   0.01    -0.17  -0.05   0.06
  13   1     0.10   0.03  -0.11    -0.02  -0.13   0.06    -0.03   0.07  -0.04
  14   1    -0.17  -0.06  -0.06     0.22  -0.02   0.02    -0.24  -0.02  -0.01
  15   1    -0.05  -0.02  -0.08    -0.23  -0.16   0.06     0.05   0.07  -0.03
  16   8     0.16   0.16   0.02     0.22  -0.23   0.06     0.07   0.07  -0.23
  17   7    -0.06  -0.11   0.09     0.00  -0.09  -0.04     0.02  -0.07  -0.07
  18   1     0.38   0.44  -0.14     0.15   0.16  -0.12     0.09   0.08  -0.12
  19   6     0.00   0.01   0.05     0.01  -0.06  -0.14     0.01  -0.09  -0.20
  20   1     0.01  -0.02   0.03    -0.01  -0.01  -0.02    -0.02  -0.01  -0.03
  21   1     0.02   0.02   0.00     0.01  -0.02  -0.08     0.00  -0.04  -0.10
  22   1    -0.03   0.01   0.01    -0.03  -0.01  -0.04    -0.03  -0.01  -0.06
                     19                     20                     21
                        a                      a                      a 
 Frequencies --   667.8816               696.4415               845.1183
 Red. masses --    10.4041                11.1163                 9.7403
 Frc consts  --     0.0000                 0.0000                 0.0000
 IR Inten    --     4.9812                16.8678                 7.3911
 Raman Activ --     0.0000                 0.0000                 0.0000
 Depolar     --     0.0000                 0.0000                 0.0000
 Atom AN      X      Y      Z        X      Y      Z        X      Y      Z
   1   7     0.13   0.21   0.06     0.09   0.06   0.02     0.17   0.07   0.02
   2   1     0.05   0.02   0.05     0.07  -0.05   0.08     0.06  -0.01   0.05
   3   6     0.25  -0.14  -0.28     0.07  -0.00  -0.14     0.00  -0.00  -0.33
   4   1     0.12  -0.12  -0.15     0.05   0.09  -0.02     0.09   0.01  -0.14
   5   6    -0.02  -0.13  -0.02     0.05   0.16  -0.01    -0.05  -0.20  -0.07
   6   6     0.13   0.08  -0.32    -0.37  -0.71   0.21    -0.18   0.14   0.17
   7   1    -0.01   0.11   0.01     0.02   0.11   0.05    -0.00  -0.01   0.06
   8   1    -0.09  -0.13   0.03    -0.05  -0.09   0.07    -0.07  -0.24   0.09
   9   1    -0.06  -0.04   0.02     0.02   0.14   0.04     0.02   0.10   0.04
  10   8     0.10  -0.04   0.27     0.19   0.21  -0.01    -0.33   0.15  -0.13
  11   6    -0.14   0.06   0.10    -0.03   0.00  -0.02     0.02   0.01  -0.02
  12   6    -0.40  -0.10   0.08    -0.07  -0.02   0.02    -0.12  -0.04   0.02
  13   1    -0.05  -0.03  -0.01    -0.03  -0.01   0.01    -0.06  -0.01   0.02
  14   1    -0.13  -0.05  -0.00    -0.01  -0.00   0.01    -0.03  -0.00   0.01
  15   1    -0.16  -0.06   0.00    -0.02  -0.00   0.01    -0.02   0.00   0.01
  16   8     0.22   0.00  -0.10     0.03  -0.03  -0.04     0.03  -0.00  -0.01
  17   7    -0.20   0.08  -0.02    -0.03   0.18  -0.10     0.41  -0.17   0.17
  18   1    -0.12  -0.06   0.10     0.09   0.15  -0.01     0.14  -0.01  -0.09
  19   6    -0.02   0.07   0.14    -0.01   0.01   0.01     0.06   0.03   0.17
  20   1     0.05  -0.03  -0.02     0.02  -0.03  -0.02    -0.13   0.15   0.17
  21   1     0.00   0.05   0.15     0.00   0.02   0.07    -0.00  -0.08  -0.23
  22   1     0.05  -0.01   0.04     0.03  -0.03  -0.01    -0.12   0.09   0.07
                     22                     23                     24
                        a                      a                      a 
 Frequencies --   919.8730               957.4915               990.5876
 Red. masses --     9.6741                 9.8769                 5.5911
 Frc consts  --     0.0000                 0.0000                 0.0000
 IR Inten    --     4.3267                27.4263                30.8132
 Raman Activ --     0.0000                 0.0000                 0.0000
 Depolar     --     0.0000                 0.0000                 0.0000
 Atom AN      X      Y      Z        X      Y      Z        X      Y      Z
   1   7     0.22   0.34   0.36    -0.25   0.16   0.30    -0.03  -0.06  -0.09
   2   1     0.14   0.02   0.14    -0.03   0.00   0.11     0.09  -0.02  -0.11
   3   6    -0.24   0.24   0.00     0.06  -0.13  -0.04     0.14   0.08  -0.01
   4   1     0.02   0.17   0.00     0.01  -0.20  -0.09     0.03   0.26   0.11
   5   6    -0.24  -0.24   0.02     0.20   0.12  -0.03     0.01  -0.21  -0.16
   6   6     0.09  -0.02  -0.06    -0.04  -0.01  -0.12     0.09   0.13   0.22
   7   1    -0.04  -0.35   0.08     0.03   0.31  -0.06     0.02   0.07   0.09
   8   1     0.07  -0.06   0.04    -0.10  -0.02  -0.02    -0.11  -0.36   0.14
   9   1     0.11   0.11  -0.00    -0.11  -0.10   0.02     0.02   0.18   0.08
  10   8     0.11  -0.08  -0.01    -0.03   0.02   0.01     0.01  -0.02  -0.01
  11   6    -0.14  -0.09  -0.05    -0.34  -0.12   0.10    -0.16  -0.03   0.07
  12   6     0.14  -0.01  -0.09     0.37   0.15  -0.06     0.12   0.20   0.19
  13   1    -0.10   0.00   0.04     0.18   0.02  -0.04     0.41   0.04  -0.13
  14   1     0.09   0.06   0.03     0.16   0.03  -0.02    -0.03  -0.09  -0.07
  15   1     0.16   0.07   0.03     0.06   0.01  -0.00    -0.23  -0.10  -0.05
  16   8    -0.02  -0.16  -0.22    -0.09  -0.20  -0.25    -0.08  -0.05  -0.04
  17   7    -0.07   0.03  -0.02     0.10  -0.07  -0.01    -0.13   0.10   0.08
  18   1    -0.01   0.01   0.04     0.04   0.00  -0.01    -0.06  -0.00   0.02
  19   6    -0.02  -0.00  -0.04     0.01   0.05   0.13     0.01  -0.09  -0.22
  20   1     0.03  -0.04  -0.04    -0.03   0.05   0.07     0.04  -0.06  -0.09
  21   1     0.00   0.02   0.06    -0.00  -0.01  -0.03     0.01   0.00   0.03
  22   1     0.03  -0.02  -0.01    -0.03   0.03   0.03     0.04  -0.05  -0.06
                     25                     26                     27
                        a                      a                      a 
 Frequencies --  1006.5472              1009.7615              1082.3716
 Red. masses --     5.3498                 5.5559                 7.7889
 Frc consts  --     0.0000                 0.0000                 0.0000
 IR Inten    --    30.2281                17.5857                 5.4493
 Raman Activ --     0.0000                 0.0000                 0.0000
 Depolar     --     0.0000                 0.0000                 0.0000
 Atom AN      X      Y      Z        X      Y      Z        X      Y      Z
   1   7    -0.01  -0.04   0.07    -0.18   0.02   0.12     0.10   0.09  -0.04
   2   1    -0.04   0.01   0.04    -0.13   0.00   0.13    -0.03   0.02   0.05
   3   6     0.01  -0.02   0.00     0.02  -0.12   0.01    -0.08  -0.49   0.29
   4   1    -0.01  -0.00   0.01    -0.07   0.10   0.11     0.07   0.06   0.11
   5   6     0.03   0.00  -0.02     0.16  -0.01  -0.18    -0.09   0.31  -0.23
   6   6     0.01   0.02   0.01     0.10   0.15   0.20     0.03   0.05  -0.14
   7   1     0.01   0.05  -0.00     0.04   0.29   0.04     0.02  -0.11   0.11
   8   1    -0.02  -0.03   0.01    -0.14  -0.29   0.10     0.07  -0.10   0.08
   9   1    -0.01   0.00   0.01    -0.05   0.12   0.07     0.18   0.43   0.01
  10   8    -0.00  -0.00   0.00    -0.01  -0.03  -0.02     0.00  -0.01   0.04
  11   6    -0.15   0.33  -0.25     0.09  -0.01   0.00     0.02  -0.02  -0.02
  12   6     0.17  -0.31   0.23    -0.06  -0.17  -0.26    -0.01   0.02   0.04
  13   1     0.07   0.22  -0.13    -0.42  -0.06   0.14     0.04   0.00  -0.01
  14   1    -0.57  -0.04   0.03     0.12   0.11   0.07    -0.02  -0.01  -0.01
  15   1     0.36   0.21  -0.18     0.24   0.10   0.07    -0.04  -0.01  -0.01
  16   8     0.01  -0.09   0.02     0.08   0.06   0.03    -0.02  -0.02  -0.03
  17   7    -0.01   0.00   0.00    -0.11   0.08   0.11    -0.05  -0.11  -0.12
  18   1    -0.00   0.00  -0.00    -0.03   0.02   0.03    -0.03  -0.05  -0.10
  19   6    -0.00  -0.00  -0.01     0.02  -0.08  -0.22     0.08   0.15   0.12
  20   1     0.00  -0.00  -0.00     0.03  -0.06  -0.07    -0.09   0.07   0.22
  21   1     0.00   0.00   0.00     0.00  -0.00   0.02    -0.05  -0.05  -0.01
  22   1     0.00  -0.00  -0.00     0.04  -0.05  -0.07    -0.04  -0.09  -0.12
                     28                     29                     30
                        a                      a                      a 
 Frequencies --  1092.7444              1097.2587              1119.3818
 Red. masses --     5.5953                 6.3716                 6.9512
 Frc consts  --     0.0000                 0.0000                 0.0000
 IR Inten    --    19.7693                 4.4139                14.5580
 Raman Activ --     0.0000                 0.0000                 0.0000
 Depolar     --     0.0000                 0.0000                 0.0000
 Atom AN      X      Y      Z        X      Y      Z        X      Y      Z
   1   7     0.13   0.05   0.01    -0.07  -0.08  -0.02    -0.06   0.01   0.02
   2   1    -0.01   0.02   0.03     0.05  -0.02  -0.07    -0.06   0.01   0.03
   3   6    -0.12  -0.17  -0.13     0.04   0.31   0.05     0.12   0.02  -0.18
   4   1     0.04  -0.23  -0.16    -0.08   0.18   0.11     0.04  -0.05  -0.08
   5   6    -0.01   0.14   0.03     0.07  -0.21   0.03    -0.06   0.01   0.10
   6   6    -0.02   0.08   0.18    -0.02  -0.06  -0.09     0.01  -0.06   0.06
   7   1    -0.01  -0.04  -0.03     0.01   0.12  -0.01    -0.02  -0.11  -0.03
   8   1     0.04   0.12  -0.04    -0.08  -0.10   0.01     0.06   0.13  -0.04
   9   1     0.02  -0.01  -0.03    -0.09  -0.13   0.04     0.02  -0.08  -0.04
  10   8    -0.14   0.05  -0.07     0.01   0.00   0.00     0.09  -0.03   0.03
  11   6     0.01  -0.01  -0.02     0.01   0.01   0.01    -0.04  -0.00   0.02
  12   6    -0.01   0.03   0.05    -0.01  -0.02  -0.03     0.03   0.00  -0.01
  13   1     0.06   0.01  -0.02    -0.04  -0.01   0.01     0.00   0.00  -0.00
  14   1    -0.02  -0.02  -0.01     0.01   0.01   0.01     0.01   0.00  -0.00
  15   1    -0.05  -0.02  -0.01     0.03   0.01   0.01     0.01   0.00  -0.00
  16   8    -0.02  -0.04  -0.04     0.02   0.04   0.05    -0.00  -0.02  -0.02
  17   7     0.13  -0.11   0.24     0.02  -0.28  -0.22    -0.33   0.20   0.27
  18   1     0.13   0.08   0.41     0.01  -0.06  -0.05    -0.13   0.01  -0.06
  19   6    -0.03   0.11  -0.34     0.04   0.38   0.11     0.39  -0.06  -0.18
  20   1     0.05  -0.15   0.04    -0.11   0.02   0.37    -0.19   0.16   0.35
  21   1    -0.07   0.06   0.34    -0.13  -0.01   0.25    -0.04  -0.22  -0.31
  22   1     0.16  -0.26  -0.27     0.05  -0.28  -0.33    -0.12  -0.14  -0.25
                     31                     32                     33
                        a                      a                      a 
 Frequencies --  1125.7994              1194.3875              1200.3732
 Red. masses --     8.3834                 7.0610                 6.4021
 Frc consts  --     0.0000                 0.0000                 0.0000
 IR Inten    --     7.0605               111.2797                69.0869
 Raman Activ --     0.0000                 0.0000                 0.0000
 Depolar     --     0.0000                 0.0000                 0.0000
 Atom AN      X      Y      Z        X      Y      Z        X      Y      Z
   1   7    -0.36  -0.05  -0.09    -0.02   0.01   0.07     0.09  -0.12  -0.20
   2   1    -0.20   0.03   0.01    -0.16   0.04   0.10     0.46  -0.09  -0.39
   3   6     0.58   0.04   0.05    -0.03   0.14   0.21    -0.17   0.03   0.15
   4   1     0.32   0.11  -0.05    -0.09   0.13   0.14     0.05  -0.14  -0.09
   5   6    -0.21  -0.04   0.01     0.05  -0.08  -0.05     0.01   0.00  -0.08
   6   6    -0.08  -0.02  -0.06    -0.09  -0.12  -0.50    -0.04  -0.06  -0.18
   7   1    -0.03  -0.29   0.06     0.01   0.10   0.02     0.01   0.05   0.03
   8   1     0.12   0.04   0.01    -0.05  -0.09   0.02    -0.03  -0.07   0.02
   9   1     0.13   0.12  -0.04    -0.03   0.03   0.04     0.00   0.08   0.02
  10   8    -0.10   0.08   0.01    -0.12   0.08   0.03    -0.02   0.01   0.01
  11   6    -0.15   0.02   0.12     0.22  -0.04  -0.15    -0.37   0.09   0.25
  12   6     0.10  -0.05  -0.10    -0.06   0.03   0.06     0.09  -0.07  -0.12
  13   1    -0.09  -0.00   0.03     0.04  -0.00  -0.01    -0.09  -0.00   0.03
  14   1     0.05   0.04   0.02    -0.04  -0.04  -0.02     0.06   0.07   0.04
  15   1     0.12   0.04   0.01    -0.09  -0.04  -0.02     0.17   0.07   0.05
  16   8     0.04   0.03   0.01    -0.05  -0.03  -0.02     0.12   0.12   0.12
  17   7     0.11  -0.07  -0.00     0.06   0.04   0.16     0.00   0.04   0.09
  18   1     0.08   0.04   0.15     0.13   0.14   0.52     0.03   0.04   0.23
  19   6    -0.05   0.02  -0.01     0.14  -0.14  -0.05     0.08  -0.07  -0.03
  20   1     0.03  -0.04  -0.04    -0.05   0.07   0.06    -0.03   0.04   0.03
  21   1     0.00   0.04   0.08     0.04  -0.06  -0.12     0.02  -0.03  -0.06
  22   1     0.03  -0.00   0.01    -0.05   0.06   0.04    -0.03   0.02   0.01
                     34                     35                     36
                        a                      a                      a 
 Frequencies --  1249.5530              1281.8070              1358.0449
 Red. masses --     5.5550                 3.0758                 7.6148
 Frc consts  --     0.0000                 0.0000                 0.0000
 IR Inten    --    33.2479                 8.3470               344.8352
 Raman Activ --     0.0000                 0.0000                 0.0000
 Depolar     --     0.0000                 0.0000                 0.0000
 Atom AN      X      Y      Z        X      Y      Z        X      Y      Z
   1   7     0.17  -0.01  -0.05    -0.05   0.03  -0.08     0.41  -0.13  -0.31
   2   1     0.02  -0.00   0.01    -0.05   0.02   0.00    -0.53   0.11   0.31
   3   6     0.05  -0.35  -0.30    -0.33  -0.11   0.09    -0.11   0.17   0.09
   4   1    -0.24   0.56   0.37     0.71   0.43  -0.26    -0.01  -0.11  -0.05
   5   6     0.03   0.06   0.19     0.15  -0.06   0.11     0.04  -0.01  -0.04
   6   6     0.01   0.04  -0.05     0.01   0.02  -0.01    -0.00   0.02   0.07
   7   1    -0.01  -0.01  -0.09     0.02   0.15  -0.05     0.01  -0.03   0.02
   8   1     0.04   0.19  -0.07    -0.05   0.08  -0.05    -0.06  -0.08   0.02
   9   1    -0.01  -0.15  -0.03    -0.07  -0.12   0.03    -0.06  -0.03   0.02
  10   8    -0.12   0.07   0.01     0.04  -0.04  -0.01     0.04  -0.02  -0.01
  11   6    -0.23   0.02   0.15     0.05   0.01  -0.02    -0.32   0.00   0.24
  12   6     0.05  -0.01  -0.04     0.00  -0.00   0.01     0.14   0.02  -0.06
  13   1    -0.01   0.00   0.00    -0.01   0.00   0.01    -0.08  -0.00   0.04
  14   1     0.03   0.03   0.02    -0.03  -0.01  -0.00    -0.08   0.04   0.02
  15   1     0.06   0.02   0.02    -0.02  -0.01  -0.00    -0.05  -0.06   0.05
  16   8     0.04   0.02  -0.00    -0.01  -0.01  -0.01     0.04   0.01  -0.02
  17   7     0.03  -0.02  -0.00    -0.01   0.01   0.02    -0.06  -0.01  -0.12
  18   1     0.03   0.02   0.10    -0.01  -0.00  -0.01     0.02   0.03   0.08
  19   6     0.00  -0.02   0.00     0.00  -0.01  -0.01     0.02   0.00   0.06
  20   1     0.00   0.00  -0.01    -0.00   0.00  -0.00     0.00   0.02  -0.01
  21   1     0.01   0.00  -0.00     0.00  -0.00  -0.00     0.00  -0.02  -0.05
  22   1    -0.00   0.02   0.02    -0.00  -0.00  -0.00    -0.03  -0.00  -0.01
                     37                     38                     39
                        a                      a                      a 
 Frequencies --  1384.7729              1387.5172              1394.2996
 Red. masses --     3.4911                 7.9686                 2.6371
 Frc consts  --     0.0000                 0.0000                 0.0000
 IR Inten    --    27.8704               123.4649                 4.7915
 Raman Activ --     0.0000                 0.0000                 0.0000
 Depolar     --     0.0000                 0.0000                 0.0000
 Atom AN      X      Y      Z        X      Y      Z        X      Y      Z
   1   7    -0.04   0.02   0.04     0.10  -0.04  -0.09     0.01  -0.00  -0.00
   2   1     0.10  -0.02  -0.05    -0.13   0.02   0.08    -0.01   0.00   0.00
   3   6     0.02  -0.02  -0.01    -0.03   0.05   0.08    -0.00   0.01   0.00
   4   1    -0.03   0.02   0.03    -0.02   0.02   0.03    -0.01  -0.01   0.00
   5   6    -0.02  -0.03   0.00     0.01  -0.03  -0.02    -0.06  -0.17   0.01
   6   6    -0.02  -0.04  -0.10    -0.06  -0.15  -0.35     0.03  -0.03  -0.02
   7   1    -0.00   0.05   0.01     0.01   0.04   0.04    -0.01   0.23   0.02
   8   1     0.03   0.04  -0.02     0.01   0.02  -0.02     0.12   0.17  -0.09
   9   1     0.03   0.04   0.00    -0.02   0.03   0.03     0.10   0.18   0.04
  10   8    -0.02   0.02   0.01    -0.05   0.05   0.03    -0.05   0.03  -0.00
  11   6     0.01   0.01  -0.01    -0.09  -0.01   0.06    -0.00   0.00   0.01
  12   6     0.37   0.12  -0.10    -0.08  -0.03   0.01    -0.01  -0.00   0.00
  13   1    -0.36  -0.09   0.24     0.10   0.03  -0.07     0.01   0.01  -0.01
  14   1    -0.53   0.04  -0.03     0.15   0.00   0.02     0.02  -0.00   0.00
  15   1    -0.36  -0.31   0.17     0.11   0.08  -0.04     0.01   0.01  -0.01
  16   8    -0.01  -0.01  -0.01     0.02   0.01   0.01    -0.00  -0.00  -0.00
  17   7     0.06   0.02   0.16     0.19   0.08   0.52     0.00   0.02   0.05
  18   1    -0.03  -0.04  -0.15    -0.08  -0.12  -0.51     0.01   0.01   0.04
  19   6    -0.03   0.01  -0.06    -0.10   0.03  -0.21    -0.09   0.19   0.25
  20   1     0.01  -0.04   0.00     0.03  -0.13   0.03     0.30  -0.28  -0.27
  21   1    -0.01   0.02   0.04    -0.02   0.06   0.14    -0.07  -0.18  -0.51
  22   1     0.04  -0.01   0.00     0.14  -0.03   0.01     0.14  -0.31  -0.23
                     40                     41                     42
                        a                      a                      a 
 Frequencies --  1398.8227              1460.9244              1464.8954
 Red. masses --     3.0495                 1.5841                 1.6021
 Frc consts  --     0.0000                 0.0000                 0.0000
 IR Inten    --    18.3292                 3.4689                11.0245
 Raman Activ --     0.0000                 0.0000                 0.0000
 Depolar     --     0.0000                 0.0000                 0.0000
 Atom AN      X      Y      Z        X      Y      Z        X      Y      Z
   1   7     0.04  -0.01  -0.02     0.01  -0.00  -0.01     0.00  -0.00   0.00
   2   1    -0.05   0.01   0.03    -0.02   0.00   0.02    -0.00   0.00  -0.00
   3   6     0.00   0.02  -0.02    -0.00   0.00   0.00     0.00   0.00   0.00
   4   1    -0.03  -0.05  -0.01     0.00  -0.00  -0.00    -0.00   0.00   0.00
   5   6    -0.13  -0.35   0.02    -0.00  -0.00  -0.00    -0.00   0.00   0.00
   6   6     0.00   0.02   0.08    -0.00   0.00   0.00    -0.01  -0.01  -0.02
   7   1    -0.02   0.49   0.05     0.00   0.00   0.01    -0.00   0.00   0.00
   8   1     0.26   0.35  -0.19     0.01   0.00   0.00     0.01  -0.01   0.01
   9   1     0.21   0.36   0.07    -0.00  -0.00   0.00     0.00  -0.01  -0.01
  10   8     0.03  -0.01  -0.00     0.00  -0.00  -0.00    -0.00  -0.00   0.00
  11   6    -0.02   0.01   0.03    -0.04   0.03  -0.01    -0.00  -0.00  -0.00
  12   6    -0.01  -0.01   0.00    -0.07   0.21  -0.01     0.00  -0.00  -0.00
  13   1     0.02   0.01  -0.01     0.14  -0.62   0.28    -0.00   0.00  -0.00
  14   1     0.03   0.00   0.00    -0.16  -0.42  -0.36     0.00   0.01   0.00
  15   1     0.02   0.02  -0.01     0.30   0.20   0.11    -0.00  -0.00   0.00
  16   8    -0.00  -0.01  -0.01     0.01   0.01   0.02     0.00   0.00   0.00
  17   7    -0.03  -0.02  -0.09     0.00   0.00   0.00    -0.00  -0.02   0.05
  18   1    -0.00  -0.00   0.01     0.00   0.00  -0.00    -0.00  -0.01  -0.02
  19   6     0.05  -0.09  -0.09    -0.00  -0.00   0.00    -0.12  -0.15   0.11
  20   1    -0.15   0.15   0.12    -0.00   0.01  -0.00    -0.21   0.44  -0.16
  21   1     0.03   0.08   0.23     0.00   0.00   0.00     0.47   0.48  -0.13
  22   1    -0.08   0.14   0.10     0.00  -0.00  -0.00     0.21  -0.34  -0.22
                     43                     44                     45
                        a                      a                      a 
 Frequencies --  1474.8871              1480.9971              1482.6407
 Red. masses --     1.7033                 1.6965                 1.6166
 Frc consts  --     0.0000                 0.0000                 0.0000
 IR Inten    --     5.8614                 8.0986                10.6284
 Raman Activ --     0.0000                 0.0000                 0.0000
 Depolar     --     0.0000                 0.0000                 0.0000
 Atom AN      X      Y      Z        X      Y      Z        X      Y      Z
   1   7    -0.01   0.00   0.02    -0.00  -0.00  -0.00    -0.01   0.01   0.02
   2   1    -0.02   0.01   0.01     0.00  -0.00  -0.00     0.02  -0.00  -0.01
   3   6     0.00   0.00   0.00     0.00   0.00   0.01     0.01  -0.03  -0.05
   4   1     0.01   0.00  -0.00    -0.00   0.00   0.00    -0.00   0.03   0.00
   5   6     0.00  -0.00   0.00     0.01  -0.00  -0.00     0.01   0.02  -0.22
   6   6     0.00   0.00   0.00     0.00  -0.03  -0.05     0.01   0.00   0.02
   7   1    -0.00  -0.00  -0.00     0.00  -0.02   0.01     0.13  -0.04   0.70
   8   1    -0.01   0.01  -0.01    -0.02   0.01  -0.01     0.34   0.14  -0.03
   9   1    -0.00   0.01   0.01    -0.02   0.02   0.02    -0.48  -0.14   0.21
  10   8     0.00  -0.00   0.00    -0.03   0.02   0.00    -0.00   0.00  -0.00
  11   6     0.05   0.00  -0.05    -0.00  -0.00  -0.00     0.01   0.01   0.00
  12   6    -0.13  -0.04  -0.20     0.00  -0.00  -0.00     0.00  -0.00  -0.00
  13   1     0.41  -0.16  -0.14     0.00   0.00  -0.00    -0.00   0.01  -0.00
  14   1    -0.21   0.37   0.27     0.00   0.00   0.00    -0.00   0.01   0.01
  15   1     0.15  -0.08   0.67    -0.00  -0.00  -0.00    -0.00  -0.00   0.00
  16   8    -0.01  -0.00  -0.00     0.00   0.00   0.00    -0.01  -0.01  -0.01
  17   7    -0.00   0.00  -0.00     0.06   0.00   0.11    -0.01  -0.00  -0.02
  18   1    -0.00  -0.00   0.00    -0.01  -0.02  -0.08     0.00   0.01   0.02
  19   6     0.00   0.00   0.00     0.16  -0.02   0.12     0.00  -0.00   0.00
  20   1     0.00  -0.00   0.00     0.08   0.26  -0.51    -0.00   0.00   0.01
  21   1    -0.00  -0.00  -0.00    -0.14  -0.10   0.28     0.00  -0.00  -0.01
  22   1    -0.00   0.00   0.00    -0.60  -0.06  -0.34     0.00   0.00   0.00
                     46                     47                     48
                        a                      a                      a 
 Frequencies --  1488.7853              1704.0760              1712.0642
 Red. masses --     1.5891                13.2626                13.2572
 Frc consts  --     0.0000                 0.0000                 0.0000
 IR Inten    --     4.3688               409.4010               473.7995
 Raman Activ --     0.0000                 0.0000                 0.0000
 Depolar     --     0.0000                 0.0000                 0.0000
 Atom AN      X      Y      Z        X      Y      Z        X      Y      Z
   1   7    -0.02   0.01   0.01    -0.01   0.06   0.06     0.01   0.01   0.01
   2   1     0.02  -0.00  -0.01    -0.04  -0.00   0.06    -0.00   0.00   0.00
   3   6     0.06  -0.02  -0.02    -0.01  -0.01  -0.00     0.03  -0.03  -0.02
   4   1    -0.02  -0.02   0.01     0.02  -0.01  -0.02    -0.04   0.04   0.03
   5   6     0.20  -0.10   0.00    -0.00  -0.00  -0.00    -0.00  -0.01   0.00
   6   6     0.00   0.01   0.02     0.16  -0.08   0.02    -0.68   0.38  -0.05
   7   1     0.01  -0.30  -0.07     0.00   0.01   0.01    -0.00   0.01   0.01
   8   1    -0.53   0.29  -0.33     0.02   0.02  -0.01     0.01   0.01  -0.01
   9   1    -0.28   0.39   0.39    -0.00   0.00   0.00    -0.00   0.00   0.00
  10   8     0.00  -0.00  -0.00    -0.11   0.06  -0.00     0.49  -0.29  -0.00
  11   6     0.00   0.00  -0.01    -0.33  -0.48  -0.51    -0.07  -0.11  -0.12
  12   6     0.00   0.00   0.00     0.04   0.03   0.02     0.01   0.01   0.01
  13   1    -0.01  -0.00   0.01     0.03   0.02  -0.02     0.01   0.00  -0.01
  14   1    -0.00  -0.01  -0.01    -0.00  -0.00  -0.00    -0.00  -0.00  -0.00
  15   1    -0.00   0.00  -0.01    -0.03  -0.02  -0.01    -0.01  -0.00  -0.00
  16   8     0.00  -0.00   0.00     0.26   0.35   0.37     0.06   0.08   0.09
  17   7    -0.01  -0.00  -0.02    -0.02   0.01  -0.02     0.08  -0.03   0.07
  18   1    -0.00  -0.00   0.00    -0.01  -0.00   0.00     0.03   0.02   0.03
  19   6    -0.01  -0.00  -0.00     0.00  -0.00   0.00    -0.01   0.01  -0.00
  20   1    -0.01  -0.00   0.02    -0.01   0.01   0.01     0.03  -0.02  -0.03
  21   1     0.01   0.01  -0.01     0.00   0.00   0.00    -0.01  -0.01  -0.02
  22   1     0.03  -0.00   0.01    -0.00   0.01   0.01    -0.00  -0.03  -0.03
                     49                     50                     51
                        a                      a                      a 
 Frequencies --  2942.5287              2955.4705              2979.1899
 Red. masses --     1.8176                 1.7400                 1.7329
 Frc consts  --     0.0000                 0.0000                 0.0000
 IR Inten    --    34.3185                 9.0664                48.2974
 Raman Activ --     0.0000                 0.0000                 0.0000
 Depolar     --     0.0000                 0.0000                 0.0000
 Atom AN      X      Y      Z        X      Y      Z        X      Y      Z
   1   7     0.00   0.00  -0.00    -0.01   0.00   0.00    -0.00  -0.00   0.00
   2   1    -0.00  -0.00   0.00    -0.01  -0.00  -0.01    -0.00  -0.00  -0.00
   3   6     0.00  -0.00   0.00    -0.12   0.09  -0.20    -0.03   0.03  -0.06
   4   1    -0.00   0.00  -0.00     0.45  -0.33   0.74     0.12  -0.09   0.20
   5   6    -0.00  -0.00   0.00     0.04  -0.02   0.05    -0.12   0.09  -0.18
   6   6     0.00   0.00   0.00    -0.01   0.00  -0.01    -0.00   0.00  -0.00
   7   1     0.00   0.00  -0.00    -0.04  -0.00   0.02     0.01   0.01  -0.03
   8   1     0.00  -0.00  -0.00     0.01  -0.02  -0.01    -0.02   0.02  -0.02
   9   1    -0.00   0.00  -0.00    -0.13   0.10  -0.21     0.42  -0.34   0.69
  10   8    -0.00   0.00   0.00     0.00  -0.00   0.00     0.00  -0.00   0.00
  11   6    -0.00   0.00   0.00    -0.00  -0.00  -0.00    -0.00  -0.00  -0.00
  12   6     0.00  -0.00  -0.00     0.00  -0.00   0.00     0.01  -0.01   0.02
  13   1     0.00   0.00   0.00    -0.00  -0.00  -0.00    -0.02  -0.02  -0.04
  14   1     0.00   0.00  -0.00     0.00   0.00  -0.00     0.00   0.04  -0.04
  15   1    -0.00   0.00   0.00    -0.00   0.00   0.00    -0.01   0.01   0.01
  16   8    -0.00  -0.00  -0.00     0.00   0.00   0.00     0.00   0.00   0.00
  17   7    -0.00  -0.00  -0.01     0.00   0.00   0.00    -0.00  -0.00  -0.00
  18   1     0.00  -0.00  -0.00     0.00  -0.00   0.00     0.00   0.00   0.00
  19   6     0.11   0.20  -0.14     0.00   0.00   0.00    -0.06  -0.03  -0.04
  20   1    -0.16  -0.06  -0.10    -0.01  -0.00  -0.00     0.24   0.15   0.10
  21   1     0.05   0.01  -0.01     0.00  -0.00   0.00    -0.01   0.00  -0.01
  22   1    -0.29  -0.63   0.63     0.00   0.00  -0.00    -0.03  -0.05   0.04
                     52                     53                     54
                        a                      a                      a 
 Frequencies --  2979.4416              2983.3396              2987.1826
 Red. masses --     1.6087                 1.8620                 1.6284
 Frc consts  --     0.0000                 0.0000                 0.0000
 IR Inten    --    23.9747                12.0166                24.3233
 Raman Activ --     0.0000                 0.0000                 0.0000
 Depolar     --     0.0000                 0.0000                 0.0000
 Atom AN      X      Y      Z        X      Y      Z        X      Y      Z
   1   7    -0.00   0.00   0.00     0.00  -0.00  -0.00     0.00   0.00   0.00
   2   1    -0.00  -0.00  -0.00     0.00  -0.00   0.00    -0.00  -0.00   0.00
   3   6    -0.01   0.01  -0.02     0.00  -0.00   0.01    -0.00   0.00  -0.00
   4   1     0.04  -0.03   0.06    -0.01   0.01  -0.02     0.01  -0.00   0.01
   5   6    -0.04   0.03  -0.06     0.01  -0.01   0.01    -0.00   0.00  -0.01
   6   6    -0.00   0.00  -0.00     0.00  -0.00   0.00    -0.00  -0.00  -0.00
   7   1     0.01   0.00  -0.01     0.00  -0.00   0.00    -0.01   0.00   0.00
   8   1    -0.01   0.01  -0.01     0.00  -0.00  -0.00    -0.00   0.00   0.00
   9   1     0.14  -0.12   0.23    -0.03   0.03  -0.05     0.01  -0.01   0.02
  10   8     0.00  -0.00  -0.00    -0.00   0.00  -0.00     0.00   0.00   0.00
  11   6     0.00  -0.00  -0.00    -0.00  -0.00   0.01    -0.00  -0.01  -0.01
  12   6     0.00  -0.00   0.00     0.03  -0.16   0.22    -0.09  -0.15  -0.16
  13   1    -0.00  -0.00  -0.00    -0.07  -0.11  -0.14     0.35   0.42   0.77
  14   1     0.00   0.01  -0.01     0.05   0.58  -0.72    -0.00   0.11  -0.19
  15   1    -0.00   0.00   0.00    -0.08   0.11   0.07    -0.02  -0.01  -0.02
  16   8     0.00   0.00   0.00     0.00   0.00  -0.00     0.00   0.00   0.00
  17   7     0.00   0.00   0.01     0.00  -0.00  -0.00     0.00   0.00  -0.00
  18   1    -0.00   0.00   0.00    -0.00   0.00  -0.00     0.00  -0.00   0.00
  19   6     0.17   0.08   0.11     0.00   0.00   0.00    -0.00  -0.00  -0.00
  20   1    -0.72  -0.43  -0.31    -0.00  -0.00  -0.00     0.01   0.01   0.00
  21   1     0.04  -0.00   0.02     0.00  -0.00   0.00    -0.00  -0.00  -0.00
  22   1     0.09   0.14  -0.12     0.00   0.00  -0.00    -0.00  -0.00   0.00
                     55                     56                     57
                        a                      a                      a 
 Frequencies --  2997.2067              3016.3085              3038.5320
 Red. masses --     1.6986                 1.6629                 1.7185
 Frc consts  --     0.0000                 0.0000                 0.0000
 IR Inten    --    16.1120                 6.7694                 2.2216
 Raman Activ --     0.0000                 0.0000                 0.0000
 Depolar     --     0.0000                 0.0000                 0.0000
 Atom AN      X      Y      Z        X      Y      Z        X      Y      Z
   1   7    -0.00   0.00  -0.00     0.00  -0.00  -0.00    -0.00  -0.00  -0.00
   2   1     0.00   0.00   0.00     0.00   0.00   0.00     0.00   0.00   0.00
   3   6     0.01  -0.00   0.01    -0.00   0.00  -0.00     0.00   0.00   0.00
   4   1    -0.02   0.01  -0.03     0.00  -0.00   0.00    -0.00   0.00  -0.00
   5   6     0.25   0.01  -0.05    -0.00   0.00  -0.00    -0.01   0.04   0.05
   6   6     0.00   0.00   0.00     0.00   0.00  -0.00     0.00   0.00  -0.00
   7   1    -0.95  -0.02   0.16     0.01   0.00  -0.00    -0.00   0.00   0.01
   8   1     0.03  -0.00  -0.01    -0.00  -0.00  -0.00     0.05  -0.13  -0.20
   9   1     0.05  -0.02   0.02     0.00  -0.00   0.00     0.00   0.00   0.01
  10   8    -0.00   0.00  -0.00    -0.00  -0.00   0.00    -0.00  -0.00   0.00
  11   6    -0.00   0.00   0.00    -0.01   0.00   0.00     0.00  -0.00  -0.00
  12   6     0.00   0.00   0.00    -0.13   0.18   0.09    -0.00  -0.00  -0.00
  13   1    -0.00  -0.00  -0.01    -0.02   0.02  -0.01     0.00   0.00   0.00
  14   1     0.00   0.00  -0.00    -0.01   0.12  -0.11    -0.00   0.00  -0.00
  15   1     0.00  -0.00  -0.00     0.51  -0.78  -0.21    -0.00   0.00   0.00
  16   8    -0.00  -0.00  -0.00     0.00  -0.00  -0.00    -0.00   0.00   0.00
  17   7     0.00  -0.00   0.00    -0.00   0.00   0.00     0.00  -0.00  -0.00
  18   1    -0.00   0.00  -0.00     0.00  -0.00  -0.00     0.01  -0.01   0.00
  19   6     0.00   0.00  -0.00    -0.00   0.00  -0.00     0.19  -0.15   0.04
  20   1    -0.01  -0.00  -0.00     0.00   0.00   0.00    -0.00  -0.03  -0.00
  21   1     0.00  -0.00   0.00     0.00   0.00  -0.00    -0.68   0.61  -0.17
  22   1    -0.00  -0.00   0.00    -0.00  -0.00   0.00     0.02  -0.04   0.03
                     58                     59                     60
                        a                      a                      a 
 Frequencies --  3038.8641              3429.0689              3441.0172
 Red. masses --     1.7258                 1.8420                 1.8409
 Frc consts  --     0.0000                 0.0000                 0.0000
 IR Inten    --     3.5760                 5.1952                 6.1316
 Raman Activ --     0.0000                 0.0000                 0.0000
 Depolar     --     0.0000                 0.0000                 0.0000
 Atom AN      X      Y      Z        X      Y      Z        X      Y      Z
   1   7    -0.00  -0.00   0.00    -0.11  -0.20  -0.11     0.00   0.00   0.00
   2   1     0.00   0.00   0.00     0.42   0.76   0.42    -0.00  -0.00  -0.00
   3   6     0.00   0.00   0.01    -0.00  -0.00  -0.00     0.00  -0.00  -0.00
   4   1    -0.01   0.01  -0.02     0.01  -0.00   0.01     0.00  -0.00  -0.00
   5   6    -0.06   0.13   0.20    -0.00   0.00  -0.00     0.00   0.00   0.00
   6   6     0.00  -0.00  -0.00     0.00   0.00  -0.00     0.01  -0.01  -0.00
   7   1     0.00   0.01   0.02     0.00  -0.00  -0.00     0.00  -0.00   0.00
   8   1     0.20  -0.49  -0.77    -0.00   0.00   0.00     0.00  -0.00  -0.00
   9   1    -0.00   0.01   0.04    -0.00   0.00  -0.00    -0.00   0.00  -0.00
  10   8     0.00   0.00  -0.00     0.00   0.00  -0.00    -0.00   0.00   0.00
  11   6     0.00  -0.00  -0.00    -0.00  -0.01  -0.00    -0.00   0.00   0.00
  12   6    -0.00  -0.00  -0.00    -0.00  -0.00  -0.00     0.00   0.00  -0.00
  13   1     0.00   0.00   0.00     0.00   0.00   0.00     0.00   0.00   0.00
  14   1    -0.00  -0.00   0.00     0.00  -0.00  -0.00     0.00  -0.00   0.00
  15   1    -0.00  -0.00  -0.00    -0.00   0.00   0.00     0.00  -0.00  -0.00
  16   8    -0.00  -0.00   0.00     0.00   0.00   0.00     0.00  -0.00  -0.00
  17   7    -0.00   0.00   0.00     0.00  -0.00  -0.00     0.19  -0.16  -0.00
  18   1    -0.00   0.00   0.00    -0.00   0.00   0.00    -0.74   0.63   0.01
  19   6    -0.05   0.04  -0.01     0.00  -0.00   0.00     0.00  -0.00   0.00
  20   1     0.00   0.01   0.00    -0.00  -0.00  -0.00     0.00   0.00   0.00
  21   1     0.18  -0.16   0.04     0.00  -0.00  -0.00    -0.01   0.01  -0.00
  22   1    -0.00   0.01  -0.01    -0.00  -0.00   0.00    -0.00  -0.00   0.00
