 Entering Gaussian System
 *********************************************
 Gaussian 98:
 frequency output generated by the xtb code
 *********************************************
                         Standard orientation:
 --------------------------------------------------------------------
  Center     Atomic     Atomic              Coordinates (Angstroms)
  Number     Number      Type              X           Y           Z
 --------------------------------------------------------------------
    1          7             0        0.778551   -0.061225   -0.547302
    2          1             0        1.220319    0.737879   -0.116643
    3          6             0       -0.672225   -0.186921   -0.336252
    4          1             0       -1.210342    0.217238   -1.197566
    5          6             0       -1.106594   -1.646400   -0.122926
    6          6             0       -1.112882    0.661094    0.864931
    7          1             0       -2.181590   -1.679197    0.066937
    8          1             0       -0.881132   -2.230675   -1.012763
    9          1             0       -0.585808   -2.087892    0.731302
   10          8             0       -2.165876    1.270831    0.856888
   11          6             0        1.399888   -0.566590   -1.666385
   12          6             0        2.847163   -0.134800   -1.848516
   13          1             0        3.272897    0.356508   -0.971206
   14          1             0        2.905776    0.546614   -2.701080
   15          1             0        3.441676   -1.016018   -2.091834
   16          8             0        0.846049   -1.308757   -2.455276
   17          7             0       -0.252692    0.653420    1.930350
   18          1             0        0.510835   -0.005632    1.911969
   19          6             0       -0.584288    1.296534    3.193285
   20          1             0        0.285345    1.823170    3.592413
   21          1             0       -1.383557    2.009905    3.001164
   22          1             0       -0.935201    0.573082    3.936521
 --------------------------------------------------------------------
     1 basis functions        1 primitive gaussians
     1 alpha electrons        1 beta electrons

 Harmonic frequencies (cm**-1), IR intensities (km*mol⁻¹),
 Raman scattering activities (A**4/amu), Raman depolarization ratios,
 reduced masses (AMU), force constants (mDyne/A) and normal coordinates:
                      1                      2                      3
                        a                      a                      a 
 Frequencies --    44.5522                77.2334                92.5494
 Red. masses --     4.7870                11.4393                10.2066
 Frc consts  --     0.0000                 0.0000                 0.0000
 IR Inten    --    12.4638                18.1179                 2.3036
 Raman Activ --     0.0000                 0.0000                 0.0000
 Depolar     --     0.0000                 0.0000                 0.0000
 Atom AN      X      Y      Z        X      Y      Z        X      Y      Z
   1   7     0.01   0.07  -0.03     0.15  -0.19   0.12     0.05   0.10  -0.08
   2   1    -0.01   0.05  -0.06     0.09  -0.12   0.11     0.01   0.04  -0.05
   3   6    -0.01   0.14  -0.06     0.14  -0.10   0.10     0.06   0.04   0.01
   4   1     0.01   0.08  -0.01     0.05  -0.05   0.01    -0.00  -0.03  -0.00
   5   6    -0.13   0.16  -0.20     0.11  -0.09   0.18     0.17   0.04   0.25
   6   6    -0.02   0.01   0.02     0.05  -0.02   0.01     0.06   0.14  -0.06
   7   1    -0.04   0.07  -0.05     0.03  -0.02   0.03     0.05  -0.00   0.09
   8   1    -0.06   0.06  -0.07     0.05  -0.04   0.06     0.05  -0.02   0.10
   9   1    -0.04   0.01  -0.07     0.02  -0.01   0.07     0.07   0.06   0.08
  10   8    -0.17  -0.23   0.15     0.03  -0.08  -0.14     0.18   0.35  -0.21
  11   6     0.04  -0.05   0.03    -0.02   0.06  -0.08    -0.01  -0.03  -0.05
  12   6     0.05  -0.10   0.05     0.07  -0.24  -0.03    -0.06   0.06  -0.25
  13   1     0.02  -0.03   0.01     0.02  -0.03  -0.03     0.02  -0.01  -0.07
  14   1     0.02  -0.03   0.01     0.08  -0.13  -0.05    -0.07   0.05  -0.05
  15   1     0.01  -0.03   0.02    -0.02  -0.12   0.07    -0.02   0.04  -0.14
  16   8     0.07  -0.13   0.09    -0.28   0.49  -0.32    -0.02  -0.23   0.13
  17   7     0.06   0.11  -0.05    -0.04   0.11   0.09    -0.09  -0.06   0.06
  18   1     0.09   0.12  -0.07    -0.01   0.03   0.06    -0.04  -0.03   0.01
  19   6     0.09  -0.02   0.03    -0.20   0.12   0.03    -0.28  -0.36   0.16
  20   1    -0.10   0.37  -0.20    -0.13   0.20  -0.05    -0.16   0.04   0.03
  21   1    -0.29  -0.34   0.12    -0.19  -0.11   0.01    -0.21  -0.24   0.10
  22   1     0.46  -0.10   0.13     0.10   0.01   0.06     0.08  -0.19   0.04
                      4                      5                      6
                        a                      a                      a 
 Frequencies --   110.1914               117.2914               133.6315
 Red. masses --     9.4466                 4.7812                 7.3023
 Frc consts  --     0.0000                 0.0000                 0.0000
 IR Inten    --     0.6936                 2.6498                 4.1888
 Raman Activ --     0.0000                 0.0000                 0.0000
 Depolar     --     0.0000                 0.0000                 0.0000
 Atom AN      X      Y      Z        X      Y      Z        X      Y      Z
   1   7     0.05   0.18  -0.13    -0.17   0.21  -0.15     0.19  -0.24   0.20
   2   1     0.03   0.05  -0.05    -0.06   0.05  -0.02     0.04  -0.04   0.01
   3   6     0.07   0.16  -0.03    -0.12  -0.02  -0.04     0.13   0.01   0.04
   4   1    -0.00   0.04   0.00    -0.07  -0.04  -0.00     0.09   0.07   0.01
   5   6     0.11   0.15   0.01     0.13  -0.07   0.09    -0.23   0.08  -0.21
   6   6     0.02   0.06   0.02    -0.06   0.00  -0.03     0.08  -0.03   0.06
   7   1     0.04   0.04   0.04     0.04  -0.07   0.04    -0.07   0.09  -0.09
   8   1     0.01   0.04  -0.00     0.05  -0.03   0.04    -0.09   0.05  -0.08
   9   1     0.06   0.05  -0.01     0.07   0.02   0.03    -0.12  -0.05  -0.07
  10   8    -0.18  -0.29   0.18     0.02   0.17  -0.01     0.09  -0.04  -0.02
  11   6     0.01  -0.03  -0.05    -0.04   0.08  -0.01     0.05  -0.04   0.01
  12   6     0.08  -0.27  -0.08     0.03  -0.07   0.18    -0.07   0.22  -0.32
  13   1     0.01   0.02  -0.07    -0.13   0.34  -0.08    -0.08   0.37  -0.24
  14   1     0.07  -0.19  -0.11     0.13  -0.38  -0.22    -0.07  -0.20  -0.30
  15   1    -0.00  -0.13   0.11     0.06  -0.11   0.51     0.06   0.04   0.19
  16   8    -0.07  -0.06   0.03     0.04   0.03  -0.02     0.03  -0.12   0.10
  17   7     0.19   0.38  -0.08    -0.07  -0.19  -0.04    -0.03  -0.03   0.16
  18   1     0.03   0.08  -0.01    -0.02  -0.05  -0.04     0.01   0.01   0.07
  19   6    -0.24  -0.20   0.10     0.17  -0.09  -0.02    -0.15   0.10   0.06
  20   1    -0.07  -0.22   0.24     0.06   0.01  -0.08    -0.05   0.02   0.03
  21   1     0.04   0.07   0.02     0.02  -0.05   0.02    -0.03   0.04  -0.03
  22   1    -0.27  -0.13  -0.13     0.11  -0.01   0.03    -0.08   0.05   0.02
                      7                      8                      9
                        a                      a                      a 
 Frequencies --   153.1339               196.0821               218.7655
 Red. masses --    10.7369                12.4804                 6.2987
 Frc consts  --     0.0000                 0.0000                 0.0000
 IR Inten    --    19.0053                28.0597                10.8330
 Raman Activ --     0.0000                 0.0000                 0.0000
 Depolar     --     0.0000                 0.0000                 0.0000
 Atom AN      X      Y      Z        X      Y      Z        X      Y      Z
   1   7    -0.06  -0.28   0.16     0.20   0.07   0.36     0.05  -0.02  -0.13
   2   1    -0.03  -0.08   0.06    -0.01   0.11  -0.01     0.04  -0.02  -0.02
   3   6    -0.08  -0.13   0.00     0.11   0.05  -0.06     0.03   0.11  -0.03
   4   1     0.01  -0.06  -0.03     0.10  -0.01  -0.07     0.01   0.01  -0.02
   5   6    -0.26  -0.05   0.20     0.10   0.07   0.00    -0.15   0.21   0.29
   6   6     0.02   0.08  -0.12    -0.12   0.00  -0.16    -0.05   0.04   0.00
   7   1    -0.09   0.02  -0.02     0.02   0.02  -0.06    -0.11   0.09  -0.29
   8   1    -0.02  -0.07   0.11     0.08  -0.02   0.04     0.28  -0.09   0.27
   9   1    -0.14   0.02   0.12    -0.02   0.06   0.05    -0.34   0.22   0.35
  10   8     0.02   0.05  -0.06    -0.18  -0.09  -0.20    -0.16  -0.13   0.07
  11   6    -0.01  -0.01   0.05     0.00   0.09   0.21     0.09  -0.02  -0.12
  12   6    -0.06   0.23   0.17    -0.01  -0.08  -0.13     0.10  -0.01  -0.09
  13   1    -0.08   0.13   0.04     0.07  -0.01  -0.08     0.03  -0.01  -0.02
  14   1    -0.03   0.03   0.02    -0.04  -0.04  -0.06     0.03  -0.00  -0.02
  15   1     0.04   0.09   0.11    -0.05  -0.05  -0.06     0.03  -0.00  -0.03
  16   8     0.09   0.08  -0.08    -0.31   0.18   0.40     0.18  -0.04  -0.18
  17   7     0.32   0.36  -0.33    -0.10  -0.13  -0.21    -0.18  -0.18   0.09
  18   1    -0.02  -0.03  -0.06    -0.00  -0.01  -0.12     0.04   0.06  -0.04
  19   6     0.08  -0.26  -0.05     0.25  -0.15  -0.11     0.07   0.01   0.04
  20   1    -0.02  -0.07   0.06     0.12  -0.11  -0.06     0.06  -0.04  -0.03
  21   1    -0.02  -0.11   0.06     0.10   0.01   0.02     0.06   0.04   0.02
  22   1     0.06  -0.19  -0.11     0.06  -0.04  -0.03    -0.00   0.04   0.04
                     10                     11                     12
                        a                      a                      a 
 Frequencies --   242.7894               293.4761               352.3339
 Red. masses --     5.9198                10.6276                 9.6263
 Frc consts  --     0.0000                 0.0000                 0.0000
 IR Inten    --     7.4236                 6.0407                46.5367
 Raman Activ --     0.0000                 0.0000                 0.0000
 Depolar     --     0.0000                 0.0000                 0.0000
 Atom AN      X      Y      Z        X      Y      Z        X      Y      Z
   1   7    -0.08   0.11   0.01     0.02  -0.20   0.03     0.11  -0.26   0.09
   2   1    -0.04   0.03   0.00     0.04  -0.07   0.01     0.04  -0.00  -0.11
   3   6    -0.05  -0.08   0.03    -0.01  -0.01   0.11     0.11   0.22  -0.10
   4   1    -0.03   0.00   0.02     0.01   0.01   0.02     0.07   0.08  -0.04
   5   6     0.17  -0.20  -0.34     0.19  -0.11  -0.19     0.32   0.23  -0.03
   6   6     0.06  -0.06   0.06    -0.21   0.15   0.06     0.10   0.09  -0.06
   7   1    -0.02  -0.16  -0.52     0.05  -0.12  -0.09     0.10  -0.01  -0.00
   8   1     0.45  -0.06   0.01     0.12   0.04  -0.09     0.14   0.05   0.01
   9   1    -0.24   0.02   0.12     0.07  -0.06  -0.07     0.13   0.13   0.00
  10   8     0.18   0.12   0.07    -0.26   0.13  -0.20     0.02  -0.05   0.08
  11   6    -0.09   0.03   0.06     0.01  -0.11  -0.05    -0.15  -0.23  -0.06
  12   6    -0.09  -0.04   0.03    -0.02  -0.02  -0.05    -0.26   0.15   0.31
  13   1    -0.02  -0.02   0.01    -0.01   0.01  -0.02    -0.22   0.07   0.14
  14   1    -0.02  -0.01   0.01    -0.03  -0.01  -0.02    -0.06   0.07   0.11
  15   1    -0.04  -0.02   0.00     0.01   0.01  -0.02     0.06   0.12   0.14
  16   8    -0.14  -0.03   0.13     0.12  -0.07  -0.18    -0.22  -0.13  -0.15
  17   7     0.18   0.14   0.00    -0.23   0.30   0.10    -0.03  -0.14  -0.00
  18   1    -0.02  -0.05   0.06    -0.04   0.11  -0.04     0.13   0.13  -0.07
  19   6    -0.11   0.04  -0.01     0.26  -0.03   0.39    -0.06  -0.01  -0.09
  20   1    -0.08   0.06   0.03     0.15  -0.10   0.08    -0.02  -0.00  -0.02
  21   1    -0.06  -0.03  -0.03     0.10   0.06   0.26    -0.01  -0.00  -0.06
  22   1    -0.01  -0.01  -0.02     0.11  -0.06   0.08    -0.04   0.02  -0.01
                     13                     14                     15
                        a                      a                      a 
 Frequencies --   357.6279               389.0465               471.4486
 Red. masses --    11.0901                 4.7742                 3.0979
 Frc consts  --     0.0000                 0.0000                 0.0000
 IR Inten    --    18.9838               180.7110               116.5995
 Raman Activ --     0.0000                 0.0000                 0.0000
 Depolar     --     0.0000                 0.0000                 0.0000
 Atom AN      X      Y      Z        X      Y      Z        X      Y      Z
   1   7     0.00   0.21  -0.13    -0.05   0.13  -0.24    -0.10   0.05  -0.14
   2   1    -0.08   0.19  -0.20     0.26  -0.43   0.49     0.17  -0.31   0.36
   3   6     0.11  -0.10   0.03     0.08   0.12  -0.02    -0.04  -0.07  -0.03
   4   1    -0.01  -0.01   0.04     0.00   0.03   0.01    -0.02  -0.05  -0.01
   5   6    -0.19  -0.02   0.01     0.04   0.14  -0.00    -0.04  -0.13  -0.03
   6   6     0.21  -0.10  -0.01     0.03  -0.03  -0.02     0.09   0.09  -0.09
   7   1    -0.06   0.10  -0.03     0.01   0.05  -0.01    -0.01  -0.04  -0.01
   8   1    -0.09  -0.03   0.01     0.01   0.03   0.01    -0.01  -0.02  -0.02
   9   1    -0.12  -0.05   0.02     0.00   0.04   0.01    -0.01  -0.05  -0.01
  10   8     0.17  -0.26  -0.52    -0.04  -0.19  -0.21     0.07   0.06   0.09
  11   6    -0.10   0.07  -0.09    -0.02  -0.05   0.05     0.05  -0.01   0.11
  12   6    -0.07   0.06   0.19    -0.06   0.08   0.07     0.05   0.03  -0.03
  13   1    -0.10  -0.01   0.11    -0.05   0.05   0.02     0.04   0.03  -0.03
  14   1     0.06   0.04   0.08    -0.05   0.03   0.02    -0.04   0.00  -0.02
  15   1     0.00   0.02   0.09     0.03   0.06   0.03     0.02   0.02  -0.02
  16   8    -0.19  -0.03   0.06    -0.14  -0.08   0.11    -0.07   0.05   0.14
  17   7     0.01   0.06   0.18     0.07   0.02   0.02    -0.12  -0.06  -0.01
  18   1     0.15   0.19  -0.01    -0.26  -0.33   0.17     0.45   0.55  -0.22
  19   6     0.08   0.01   0.24     0.09   0.02   0.05    -0.04  -0.05  -0.03
  20   1     0.04  -0.04   0.08     0.03   0.02  -0.01     0.00  -0.05   0.01
  21   1     0.04   0.03   0.09     0.02  -0.00   0.02     0.01   0.01   0.00
  22   1     0.01  -0.00   0.05     0.05   0.01   0.03    -0.04  -0.02  -0.02
                     16                     17                     18
                        a                      a                      a 
 Frequencies --   525.8771               582.5485               596.7269
 Red. masses --    11.1651                 9.6214                10.3174
 Frc consts  --     0.0000                 0.0000                 0.0000
 IR Inten    --     9.8414                14.0237                24.7304
 Raman Activ --     0.0000                 0.0000                 0.0000
 Depolar     --     0.0000                 0.0000                 0.0000
 Atom AN      X      Y      Z        X      Y      Z        X      Y      Z
   1   7    -0.32  -0.06   0.19     0.05  -0.06   0.16    -0.11  -0.34   0.04
   2   1    -0.10  -0.01   0.04     0.09  -0.11   0.15    -0.11  -0.06   0.04
   3   6    -0.23   0.17  -0.09     0.10   0.04   0.28    -0.21   0.01  -0.46
   4   1    -0.08   0.10   0.01     0.05   0.02   0.07    -0.02   0.03  -0.14
   5   6     0.09   0.18   0.01     0.03   0.05   0.00     0.02   0.02  -0.03
   6   6     0.15  -0.06   0.01    -0.01   0.05   0.07     0.10  -0.02  -0.16
   7   1     0.04  -0.07   0.04     0.00   0.02  -0.03     0.02  -0.09   0.07
   8   1     0.08   0.04   0.02     0.02   0.09  -0.05     0.03  -0.10   0.07
   9   1     0.11   0.15   0.01    -0.02  -0.07  -0.03     0.11   0.19   0.02
  10   8     0.13  -0.19  -0.28    -0.05   0.00  -0.08     0.10  -0.06   0.10
  11   6    -0.09  -0.02   0.30    -0.29   0.49  -0.28    -0.01   0.30  -0.20
  12   6    -0.22  -0.14  -0.07    -0.18  -0.04  -0.00     0.20   0.07  -0.05
  13   1     0.11  -0.01  -0.12    -0.03  -0.15   0.06     0.04  -0.06   0.04
  14   1    -0.20  -0.10  -0.08     0.24  -0.02   0.02     0.25   0.03   0.01
  15   1    -0.15  -0.08  -0.10    -0.26  -0.17   0.07    -0.03  -0.06   0.04
  16   8     0.35   0.14  -0.11     0.24  -0.24   0.04    -0.11  -0.07   0.26
  17   7     0.12  -0.05   0.09     0.04  -0.07  -0.05    -0.05   0.07   0.09
  18   1     0.09   0.06   0.02     0.07   0.05  -0.07    -0.03  -0.01   0.09
  19   6     0.01   0.01   0.05     0.01  -0.07  -0.14    -0.01   0.09   0.22
  20   1    -0.01   0.01   0.03    -0.01  -0.01  -0.02     0.02   0.00   0.04
  21   1     0.00  -0.01  -0.02     0.00  -0.03  -0.07     0.00   0.04   0.11
  22   1    -0.02   0.01   0.01    -0.02  -0.01  -0.04     0.02   0.02   0.06
                     19                     20                     21
                        a                      a                      a 
 Frequencies --   665.4962               693.5498               846.6065
 Red. masses --    10.4979                10.9781                 9.8147
 Frc consts  --     0.0000                 0.0000                 0.0000
 IR Inten    --     5.9771                33.7497                 6.9183
 Raman Activ --     0.0000                 0.0000                 0.0000
 Depolar     --     0.0000                 0.0000                 0.0000
 Atom AN      X      Y      Z        X      Y      Z        X      Y      Z
   1   7    -0.12  -0.18  -0.04     0.13   0.09   0.03     0.19   0.09   0.03
   2   1    -0.04  -0.03  -0.04     0.07  -0.03   0.07     0.08  -0.01   0.04
   3   6    -0.24   0.15   0.26     0.11  -0.03  -0.20    -0.02   0.03  -0.27
   4   1    -0.12   0.14   0.15     0.07   0.07  -0.04     0.08   0.04  -0.12
   5   6     0.03   0.16   0.02     0.04   0.13  -0.02    -0.08  -0.22  -0.06
   6   6    -0.17  -0.20   0.33    -0.36  -0.68   0.17    -0.18   0.15   0.15
   7   1     0.01  -0.10  -0.00     0.02   0.14   0.06    -0.01  -0.07   0.07
   8   1     0.09   0.12  -0.02    -0.07  -0.12   0.08    -0.06  -0.23   0.08
   9   1     0.06   0.07  -0.02     0.01   0.14   0.05     0.03   0.10   0.04
  10   8    -0.05   0.05  -0.28     0.18   0.21   0.03    -0.33   0.14  -0.15
  11   6     0.11  -0.06  -0.10    -0.03   0.01  -0.01     0.03   0.01  -0.03
  12   6     0.38   0.10  -0.08    -0.14  -0.03   0.03    -0.11  -0.04   0.01
  13   1     0.05   0.03   0.01    -0.04  -0.01   0.01    -0.07  -0.01   0.02
  14   1     0.14   0.06   0.00    -0.04  -0.01   0.01    -0.03   0.00   0.01
  15   1     0.17   0.06   0.00    -0.05  -0.01   0.01    -0.01   0.00   0.01
  16   8    -0.22  -0.02   0.08     0.07  -0.02  -0.05     0.03  -0.00  -0.01
  17   7     0.19  -0.04   0.00    -0.05   0.18  -0.09     0.43  -0.18   0.17
  18   1     0.11   0.06  -0.08     0.06   0.13   0.01     0.13  -0.02  -0.08
  19   6     0.02  -0.06  -0.14    -0.01   0.03   0.03     0.06   0.02   0.16
  20   1    -0.04   0.02   0.01     0.03  -0.03  -0.01    -0.13   0.15   0.17
  21   1    -0.00  -0.05  -0.12    -0.00   0.03   0.09    -0.00  -0.09  -0.24
  22   1    -0.04  -0.00  -0.04     0.03  -0.03  -0.01    -0.12   0.09   0.06
                     22                     23                     24
                        a                      a                      a 
 Frequencies --   909.1107               951.0276               978.3731
 Red. masses --     8.3404                10.4663                 5.8324
 Frc consts  --     0.0000                 0.0000                 0.0000
 IR Inten    --     5.4509                25.1514                43.3097
 Raman Activ --     0.0000                 0.0000                 0.0000
 Depolar     --     0.0000                 0.0000                 0.0000
 Atom AN      X      Y      Z        X      Y      Z        X      Y      Z
   1   7     0.23   0.29   0.28    -0.18   0.27   0.43    -0.08   0.00  -0.02
   2   1     0.13   0.03   0.10    -0.05   0.03   0.19     0.06  -0.01  -0.07
   3   6    -0.21   0.25   0.04    -0.03  -0.08  -0.04     0.14   0.04  -0.01
   4   1     0.02   0.24   0.05     0.02  -0.20  -0.11     0.06   0.20   0.08
   5   6    -0.27  -0.25   0.01     0.14   0.09   0.01     0.04  -0.17  -0.16
   6   6     0.12  -0.01  -0.02    -0.04  -0.04  -0.17     0.07   0.12   0.16
   7   1    -0.05  -0.40   0.10     0.02   0.21  -0.06     0.02   0.12   0.09
   8   1     0.08  -0.09   0.05    -0.06   0.04  -0.03    -0.11  -0.34   0.12
   9   1     0.12   0.14  -0.00    -0.08  -0.10   0.00    -0.01   0.14   0.07
  10   8     0.14  -0.10   0.00    -0.01   0.01   0.01    -0.02  -0.01  -0.01
  11   6    -0.05  -0.06  -0.08    -0.29  -0.13   0.03    -0.22  -0.12   0.13
  12   6     0.04  -0.05  -0.08     0.31   0.06  -0.12     0.18   0.29   0.15
  13   1    -0.14  -0.00   0.05     0.02   0.01   0.01     0.45   0.02  -0.12
  14   1     0.04   0.05   0.03     0.17   0.06   0.01     0.09  -0.07  -0.08
  15   1     0.14   0.06   0.02     0.17   0.06   0.01    -0.26  -0.12  -0.02
  16   8     0.01  -0.10  -0.15    -0.05  -0.21  -0.29    -0.10  -0.10  -0.13
  17   7    -0.14   0.06  -0.03     0.11  -0.07  -0.03    -0.09   0.06   0.06
  18   1    -0.04   0.01   0.05     0.05   0.00  -0.01    -0.04   0.00   0.02
  19   6    -0.03  -0.02  -0.10     0.00   0.05   0.15     0.01  -0.06  -0.15
  20   1     0.06  -0.07  -0.08    -0.04   0.05   0.07     0.03  -0.05  -0.06
  21   1     0.00   0.03   0.09    -0.00  -0.01  -0.02     0.00  -0.00   0.01
  22   1     0.05  -0.04  -0.03    -0.03   0.04   0.05     0.03  -0.04  -0.05
                     25                     26                     27
                        a                      a                      a 
 Frequencies --   993.0731              1001.1706              1076.9370
 Red. masses --     5.5806                 5.6691                 6.9695
 Frc consts  --     0.0000                 0.0000                 0.0000
 IR Inten    --    51.6084                37.5411                 1.7447
 Raman Activ --     0.0000                 0.0000                 0.0000
 Depolar     --     0.0000                 0.0000                 0.0000
 Atom AN      X      Y      Z        X      Y      Z        X      Y      Z
   1   7    -0.05  -0.05   0.07    -0.18  -0.01   0.07    -0.03   0.01  -0.05
   2   1    -0.06   0.00   0.04    -0.13   0.00   0.09    -0.02  -0.00   0.01
   3   6     0.05  -0.02   0.01     0.03  -0.12   0.01     0.04  -0.23   0.33
   4   1     0.00   0.05   0.03    -0.07   0.10   0.11     0.03   0.20   0.20
   5   6     0.05  -0.03  -0.07     0.17  -0.02  -0.18    -0.05   0.12  -0.19
   6   6     0.03   0.05   0.06     0.10   0.17   0.20     0.03  -0.01  -0.22
   7   1     0.02   0.11   0.02     0.05   0.30   0.05     0.02  -0.02   0.11
   8   1    -0.06  -0.12   0.04    -0.15  -0.30   0.10     0.02  -0.16   0.09
   9   1    -0.02   0.04   0.03    -0.05   0.12   0.08     0.11   0.31   0.03
  10   8    -0.01  -0.00  -0.01    -0.03  -0.02  -0.02     0.08  -0.03   0.07
  11   6    -0.16   0.33  -0.25     0.11  -0.04   0.04     0.01   0.00   0.01
  12   6     0.18  -0.29   0.22    -0.09  -0.13  -0.27    -0.00  -0.01  -0.01
  13   1     0.09   0.22  -0.13    -0.41  -0.09   0.15    -0.02  -0.00   0.01
  14   1    -0.53  -0.04   0.03     0.18   0.11   0.06    -0.00   0.01   0.00
  15   1     0.34   0.19  -0.18     0.17   0.06   0.09     0.01   0.01   0.00
  16   8     0.00  -0.09   0.02     0.09   0.10   0.06     0.01   0.02   0.01
  17   7    -0.03   0.02   0.03    -0.10   0.07   0.11    -0.07  -0.08  -0.32
  18   1    -0.01   0.01   0.01    -0.03   0.02   0.05    -0.08  -0.09  -0.36
  19   6     0.01  -0.03  -0.06     0.02  -0.08  -0.21     0.02   0.09   0.33
  20   1     0.01  -0.02  -0.02     0.03  -0.06  -0.07    -0.10   0.14   0.14
  21   1     0.00  -0.00  -0.00     0.00  -0.01   0.00    -0.01  -0.04  -0.11
  22   1     0.01  -0.02  -0.02     0.04  -0.06  -0.07    -0.11   0.10   0.10
                     28                     29                     30
                        a                      a                      a 
 Frequencies --  1091.8293              1106.7407              1119.0274
 Red. masses --     7.8212                 4.5368                 8.2194
 Frc consts  --     0.0000                 0.0000                 0.0000
 IR Inten    --    10.8438                 4.7805                 5.0796
 Raman Activ --     0.0000                 0.0000                 0.0000
 Depolar     --     0.0000                 0.0000                 0.0000
 Atom AN      X      Y      Z        X      Y      Z        X      Y      Z
   1   7     0.14   0.12   0.01    -0.04   0.03  -0.00     0.37   0.06   0.10
   2   1    -0.06   0.04   0.09    -0.06   0.01   0.04     0.19  -0.01  -0.00
   3   6    -0.10  -0.52   0.08     0.08  -0.13  -0.03    -0.57  -0.08   0.03
   4   1     0.10  -0.21  -0.09     0.09  -0.07  -0.07    -0.35  -0.11   0.09
   5   6    -0.12   0.35  -0.14    -0.07   0.09  -0.01     0.19   0.05  -0.07
   6   6     0.01   0.10   0.04     0.00   0.02   0.05     0.07   0.05   0.02
   7   1    -0.00  -0.15   0.06    -0.01  -0.10   0.01     0.04   0.28  -0.03
   8   1     0.12   0.07   0.02     0.06   0.05  -0.00    -0.13  -0.08   0.00
   9   1     0.18   0.33  -0.04     0.07   0.08  -0.03    -0.10  -0.02   0.05
  10   8    -0.10   0.03  -0.01     0.02  -0.00   0.01     0.04  -0.05  -0.02
  11   6     0.02  -0.02  -0.02    -0.02  -0.01   0.01     0.17  -0.02  -0.14
  12   6    -0.01   0.03   0.06     0.01   0.00  -0.01    -0.09   0.05   0.11
  13   1     0.06   0.01  -0.02     0.00   0.00  -0.00     0.09   0.01  -0.02
  14   1    -0.02  -0.02  -0.01     0.01   0.00   0.00    -0.06  -0.05  -0.02
  15   1    -0.05  -0.02  -0.01     0.01   0.00  -0.00    -0.13  -0.05  -0.02
  16   8    -0.04  -0.05  -0.06    -0.00  -0.01  -0.02    -0.04  -0.03  -0.01
  17   7     0.03  -0.03   0.20     0.01   0.28   0.09     0.03   0.01  -0.06
  18   1     0.06   0.05   0.22    -0.03   0.03  -0.03    -0.01  -0.02  -0.05
  19   6     0.05   0.03  -0.19    -0.09  -0.41  -0.00    -0.09  -0.03   0.05
  20   1     0.00  -0.06   0.06     0.11   0.01  -0.43     0.05  -0.03  -0.12
  21   1    -0.04  -0.02   0.09     0.17   0.04  -0.29     0.03   0.05   0.03
  22   1     0.06  -0.15  -0.18    -0.06   0.37   0.44     0.01   0.07   0.11
                     31                     32                     33
                        a                      a                      a 
 Frequencies --  1131.5638              1194.4504              1204.6165
 Red. masses --     6.9840                 6.9528                 7.2087
 Frc consts  --     0.0000                 0.0000                 0.0000
 IR Inten    --    21.4757               141.8159                53.1908
 Raman Activ --     0.0000                 0.0000                 0.0000
 Depolar     --     0.0000                 0.0000                 0.0000
 Atom AN      X      Y      Z        X      Y      Z        X      Y      Z
   1   7    -0.06  -0.03  -0.06     0.12  -0.08  -0.17    -0.06   0.07   0.09
   2   1    -0.02  -0.00  -0.03     0.41  -0.09  -0.32    -0.21   0.03   0.20
   3   6     0.08   0.02   0.15    -0.13  -0.06  -0.04     0.10  -0.08  -0.22
   4   1     0.07   0.07   0.04     0.06  -0.24  -0.17     0.06  -0.07  -0.10
   5   6    -0.01  -0.02  -0.06    -0.02   0.05  -0.04    -0.03   0.04   0.07
   6   6    -0.05   0.03  -0.09     0.05   0.05   0.25     0.10   0.14   0.52
   7   1     0.01   0.00   0.04    -0.00  -0.01   0.01    -0.01  -0.08  -0.04
   8   1    -0.01  -0.08   0.03     0.00  -0.00   0.00     0.03   0.07  -0.02
   9   1     0.02   0.07   0.01     0.02   0.05  -0.00     0.02  -0.07  -0.04
  10   8    -0.15   0.07  -0.03     0.07  -0.05  -0.03     0.08  -0.06  -0.05
  11   6    -0.02   0.01   0.03    -0.45   0.10   0.30     0.16  -0.04  -0.11
  12   6     0.01  -0.02  -0.02     0.11  -0.07  -0.12    -0.04   0.03   0.05
  13   1    -0.03  -0.00   0.01    -0.07   0.01   0.01     0.03  -0.00  -0.01
  14   1     0.01   0.01   0.01     0.08   0.08   0.05    -0.03  -0.03  -0.02
  15   1     0.03   0.01   0.00     0.19   0.07   0.04    -0.07  -0.03  -0.02
  16   8     0.02   0.02   0.02     0.12   0.09   0.07    -0.06  -0.06  -0.06
  17   7     0.38  -0.24  -0.18    -0.03  -0.01  -0.06    -0.03  -0.07  -0.19
  18   1     0.16   0.01   0.19    -0.07  -0.06  -0.20    -0.11  -0.12  -0.49
  19   6    -0.38   0.12   0.10    -0.05   0.05   0.01    -0.16   0.14   0.05
  20   1     0.18  -0.20  -0.28     0.02  -0.02  -0.02     0.05  -0.07  -0.06
  21   1     0.01   0.24   0.39    -0.01   0.02   0.05    -0.03   0.08   0.16
  22   1     0.17   0.04   0.16     0.02  -0.02  -0.01     0.06  -0.04  -0.02
                     34                     35                     36
                        a                      a                      a 
 Frequencies --  1250.8344              1280.1170              1355.8614
 Red. masses --     5.9425                 3.6091                 3.4281
 Frc consts  --     0.0000                 0.0000                 0.0000
 IR Inten    --    53.0226                 8.4658                71.9934
 Raman Activ --     0.0000                 0.0000                 0.0000
 Depolar     --     0.0000                 0.0000                 0.0000
 Atom AN      X      Y      Z        X      Y      Z        X      Y      Z
   1   7     0.17   0.01  -0.04     0.02  -0.03   0.10    -0.03   0.01   0.01
   2   1    -0.00   0.01   0.03     0.02  -0.01   0.00    -0.00  -0.00   0.00
   3   6     0.01  -0.39  -0.32     0.39   0.10  -0.13    -0.01  -0.00   0.01
   4   1    -0.17   0.57   0.33    -0.71  -0.35   0.29     0.02   0.01  -0.01
   5   6     0.04   0.08   0.21    -0.16   0.03  -0.08     0.00  -0.00   0.00
   6   6     0.03   0.06   0.01    -0.01  -0.02   0.01    -0.00  -0.00  -0.00
   7   1    -0.01  -0.01  -0.10    -0.02  -0.15   0.03     0.00   0.00  -0.00
   8   1     0.04   0.21  -0.07     0.06  -0.06   0.05    -0.00   0.00  -0.00
   9   1    -0.01  -0.16  -0.04     0.09   0.11  -0.04    -0.00  -0.00   0.00
  10   8    -0.11   0.05   0.01    -0.05   0.04   0.01     0.00  -0.00   0.00
  11   6    -0.22   0.02   0.15    -0.07  -0.01   0.02     0.07  -0.01  -0.04
  12   6     0.04  -0.01  -0.03     0.00  -0.00  -0.01    -0.43  -0.12   0.12
  13   1     0.01   0.01  -0.01     0.02   0.00  -0.01     0.37   0.08  -0.25
  14   1     0.04   0.03   0.02     0.03   0.01   0.00     0.54  -0.06   0.03
  15   1     0.06   0.03   0.01     0.02   0.01  -0.00     0.37   0.33  -0.18
  16   8     0.03  -0.00  -0.02     0.01   0.00  -0.00     0.01   0.02   0.02
  17   7     0.03  -0.02  -0.01     0.02  -0.01  -0.01     0.00   0.00   0.01
  18   1     0.01   0.00   0.02     0.01  -0.00  -0.00    -0.00  -0.00  -0.01
  19   6    -0.02  -0.00   0.00    -0.01   0.01   0.00    -0.00  -0.00  -0.01
  20   1     0.01  -0.01  -0.02     0.00  -0.00  -0.00    -0.00   0.00   0.00
  21   1     0.00   0.01   0.01    -0.00   0.00   0.01     0.00   0.00   0.01
  22   1     0.01   0.00   0.01     0.00  -0.00   0.00     0.00   0.00   0.00
                     37                     38                     39
                        a                      a                      a 
 Frequencies --  1371.9548              1377.3407              1388.0398
 Red. masses --     6.3203                 3.8680                 3.7006
 Frc consts  --     0.0000                 0.0000                 0.0000
 IR Inten    --   364.9801                50.0659                40.8430
 Raman Activ --     0.0000                 0.0000                 0.0000
 Depolar     --     0.0000                 0.0000                 0.0000
 Atom AN      X      Y      Z        X      Y      Z        X      Y      Z
   1   7    -0.38   0.11   0.26    -0.16   0.05   0.11     0.10  -0.03  -0.07
   2   1     0.52  -0.11  -0.31     0.23  -0.05  -0.13    -0.13   0.02   0.08
   3   6     0.10  -0.15  -0.09     0.02  -0.10  -0.02    -0.02   0.04   0.03
   4   1     0.02   0.10   0.04     0.02   0.04   0.01    -0.01  -0.01   0.00
   5   6    -0.07  -0.12   0.05     0.12   0.41  -0.02     0.01  -0.00  -0.01
   6   6    -0.01  -0.02  -0.07    -0.01   0.01  -0.02    -0.05  -0.02  -0.08
   7   1    -0.02   0.19  -0.03     0.03  -0.49  -0.03     0.00  -0.01   0.01
   8   1     0.13   0.18  -0.08    -0.23  -0.35   0.21    -0.01  -0.01   0.00
   9   1     0.14   0.14  -0.00    -0.21  -0.38  -0.10    -0.02  -0.01   0.01
  10   8    -0.03   0.02   0.01    -0.00  -0.00   0.00     0.03  -0.01   0.01
  11   6     0.24  -0.02  -0.21     0.09  -0.01  -0.10    -0.07   0.00   0.05
  12   6    -0.02   0.01   0.03    -0.01   0.00   0.01     0.01  -0.00  -0.01
  13   1    -0.03  -0.01   0.02    -0.01  -0.00   0.01     0.00   0.00  -0.00
  14   1    -0.04  -0.04  -0.03    -0.02  -0.01  -0.01     0.00   0.01   0.01
  15   1    -0.04  -0.02  -0.03    -0.02  -0.01  -0.01     0.01   0.00   0.01
  16   8    -0.02   0.01   0.04    -0.00   0.01   0.02     0.01  -0.00  -0.01
  17   7     0.06   0.02   0.15     0.01  -0.00   0.01     0.05   0.02   0.16
  18   1    -0.04  -0.05  -0.15     0.00  -0.00   0.01    -0.04  -0.05  -0.20
  19   6    -0.02  -0.02  -0.11     0.01  -0.02  -0.03     0.06  -0.18  -0.37
  20   1    -0.03  -0.01   0.04    -0.02   0.01   0.02    -0.28   0.18   0.30
  21   1     0.00   0.04   0.10     0.00   0.01   0.04     0.04   0.17   0.55
  22   1     0.03   0.03   0.03    -0.00   0.02   0.02    -0.06   0.31   0.24
                     40                     41                     42
                        a                      a                      a 
 Frequencies --  1405.4105              1446.1102              1451.0759
 Red. masses --     7.1041                 1.5551                 1.5045
 Frc consts  --     0.0000                 0.0000                 0.0000
 IR Inten    --   183.3489                 9.6012                15.9663
 Raman Activ --     0.0000                 0.0000                 0.0000
 Depolar     --     0.0000                 0.0000                 0.0000
 Atom AN      X      Y      Z        X      Y      Z        X      Y      Z
   1   7    -0.08   0.03   0.06    -0.01   0.01   0.01    -0.00   0.00   0.00
   2   1     0.09  -0.01  -0.06     0.01  -0.00  -0.01     0.00  -0.00  -0.00
   3   6     0.03  -0.05  -0.07     0.00  -0.00  -0.00    -0.00  -0.00  -0.00
   4   1     0.02  -0.02  -0.03     0.00   0.00   0.00     0.00   0.00  -0.00
   5   6    -0.03  -0.03   0.02    -0.00   0.00   0.00     0.00  -0.00   0.00
   6   6     0.08   0.12   0.33     0.00   0.00   0.00     0.00   0.00   0.01
   7   1    -0.01   0.04  -0.03    -0.00   0.00  -0.00    -0.00  -0.00  -0.01
   8   1     0.03   0.04  -0.02     0.00  -0.00   0.00    -0.01   0.00  -0.00
   9   1     0.05   0.03  -0.02     0.00  -0.00  -0.00     0.00   0.00   0.00
  10   8     0.02  -0.03  -0.03     0.00   0.00  -0.00    -0.00   0.00  -0.00
  11   6     0.06  -0.00  -0.04     0.05  -0.03   0.01     0.00  -0.00  -0.00
  12   6    -0.01   0.00   0.01     0.05  -0.21   0.00     0.00  -0.01   0.00
  13   1    -0.00  -0.00   0.00    -0.11   0.61  -0.30    -0.00   0.02  -0.01
  14   1    -0.00  -0.01  -0.01     0.16   0.42   0.37     0.00   0.01   0.01
  15   1    -0.01   0.00  -0.01    -0.29  -0.20  -0.09    -0.01  -0.00  -0.00
  16   8    -0.01  -0.00   0.00    -0.02  -0.01  -0.02    -0.00  -0.00  -0.00
  17   7    -0.16  -0.10  -0.51    -0.00  -0.00  -0.00     0.02   0.02  -0.03
  18   1     0.09   0.11   0.50     0.00   0.00   0.00    -0.00  -0.00   0.01
  19   6     0.14  -0.11   0.08    -0.00  -0.00   0.00     0.12   0.14  -0.08
  20   1    -0.16   0.25   0.07    -0.01   0.01  -0.00     0.25  -0.42   0.06
  21   1     0.03   0.01   0.15     0.01   0.01  -0.00    -0.48  -0.50   0.13
  22   1    -0.23   0.16   0.07     0.01  -0.01  -0.00    -0.28   0.33   0.16
                     43                     44                     45
                        a                      a                      a 
 Frequencies --  1453.6388              1459.8992              1470.0204
 Red. masses --     1.7138                 1.5219                 1.6777
 Frc consts  --     0.0000                 0.0000                 0.0000
 IR Inten    --     9.8914                18.8875                20.1392
 Raman Activ --     0.0000                 0.0000                 0.0000
 Depolar     --     0.0000                 0.0000                 0.0000
 Atom AN      X      Y      Z        X      Y      Z        X      Y      Z
   1   7    -0.03   0.01   0.02    -0.01  -0.00  -0.01    -0.01   0.00   0.01
   2   1     0.00   0.00  -0.00    -0.01   0.00   0.00     0.01  -0.00  -0.01
   3   6     0.01  -0.00   0.00     0.04   0.01   0.03     0.02  -0.01  -0.02
   4   1     0.01   0.00  -0.00    -0.00  -0.03   0.01    -0.01   0.01   0.01
   5   6     0.00  -0.00   0.01     0.13  -0.06   0.15     0.07  -0.02  -0.07
   6   6     0.00   0.00   0.00    -0.00  -0.00  -0.01    -0.01  -0.02  -0.06
   7   1    -0.00  -0.00  -0.02    -0.08  -0.21  -0.55     0.05  -0.12   0.20
   8   1    -0.01   0.00  -0.00    -0.62   0.07  -0.19    -0.07   0.14  -0.13
   9   1     0.01   0.01  -0.00     0.15   0.36   0.13    -0.26   0.09   0.20
  10   8    -0.00  -0.00  -0.00     0.00   0.00   0.00    -0.02   0.01   0.00
  11   6     0.06   0.01  -0.06    -0.01  -0.00  -0.00     0.00   0.00  -0.00
  12   6    -0.13  -0.04  -0.19     0.00  -0.00   0.00     0.00  -0.00  -0.00
  13   1     0.41  -0.19  -0.14    -0.01   0.01   0.00     0.00   0.00  -0.00
  14   1    -0.22   0.35   0.25     0.00  -0.00  -0.00    -0.00   0.00   0.00
  15   1     0.16  -0.07   0.67    -0.00   0.00  -0.01    -0.00  -0.00   0.00
  16   8    -0.01  -0.01   0.00     0.01   0.01   0.00    -0.00  -0.00  -0.00
  17   7    -0.00  -0.00  -0.00     0.00  -0.00   0.00     0.06   0.00   0.12
  18   1     0.00   0.00   0.00    -0.00  -0.00  -0.01    -0.01  -0.03  -0.10
  19   6     0.00  -0.00   0.00    -0.00  -0.00  -0.00     0.11  -0.04   0.10
  20   1     0.00   0.00  -0.00    -0.00   0.00   0.00     0.05   0.28  -0.46
  21   1    -0.00  -0.00  -0.00     0.01   0.01  -0.00    -0.06  -0.02   0.27
  22   1    -0.00  -0.00  -0.00     0.01  -0.00   0.00    -0.49  -0.09  -0.31
                     46                     47                     48
                        a                      a                      a 
 Frequencies --  1471.3289              1718.2722              1725.7578
 Red. masses --     1.7059                13.2516                13.2993
 Frc consts  --     0.0000                 0.0000                 0.0000
 IR Inten    --    13.4312               459.1779               553.1586
 Raman Activ --     0.0000                 0.0000                 0.0000
 Depolar     --     0.0000                 0.0000                 0.0000
 Atom AN      X      Y      Z        X      Y      Z        X      Y      Z
   1   7    -0.03   0.01   0.02    -0.02  -0.05  -0.03     0.01   0.01   0.01
   2   1     0.03  -0.01  -0.02     0.05  -0.00  -0.07    -0.01   0.00   0.02
   3   6     0.05  -0.04  -0.05     0.02  -0.00  -0.01     0.03  -0.03  -0.02
   4   1    -0.02   0.01   0.01    -0.03   0.01   0.03    -0.03   0.04   0.03
   5   6     0.12  -0.05  -0.13    -0.00   0.00   0.00    -0.00  -0.01   0.00
   6   6     0.02   0.02   0.06    -0.24   0.14  -0.01    -0.64   0.38  -0.01
   7   1     0.09  -0.22   0.38    -0.00  -0.01  -0.00    -0.00   0.01   0.00
   8   1    -0.11   0.27  -0.24    -0.01  -0.01   0.00     0.01   0.01  -0.01
   9   1    -0.47   0.17   0.37     0.00  -0.00  -0.00     0.00   0.00   0.00
  10   8    -0.00  -0.00  -0.00     0.18  -0.10   0.00     0.48  -0.28  -0.00
  11   6     0.01   0.00  -0.01     0.35   0.46   0.47    -0.13  -0.17  -0.18
  12   6    -0.00  -0.00  -0.00    -0.04  -0.03  -0.02     0.01   0.01   0.01
  13   1     0.00   0.00  -0.00    -0.04  -0.02   0.02     0.01   0.01  -0.01
  14   1    -0.00   0.00   0.00     0.01  -0.00   0.00    -0.00  -0.00  -0.00
  15   1    -0.00  -0.00   0.00     0.03   0.02   0.01    -0.01  -0.01  -0.00
  16   8    -0.00  -0.00  -0.00    -0.26  -0.34  -0.35     0.10   0.13   0.14
  17   7    -0.04  -0.00  -0.09     0.02  -0.01   0.02     0.05  -0.03   0.03
  18   1     0.01   0.02   0.07     0.01   0.01   0.01     0.04   0.02   0.05
  19   6    -0.05   0.02  -0.05    -0.00   0.00  -0.00    -0.01   0.01   0.00
  20   1    -0.03  -0.14   0.25     0.01  -0.01  -0.01     0.02  -0.01  -0.02
  21   1     0.03   0.01  -0.14    -0.00  -0.00  -0.00    -0.01  -0.01  -0.02
  22   1     0.26   0.05   0.17     0.00  -0.01  -0.01     0.00  -0.02  -0.02
                     49                     50                     51
                        a                      a                      a 
 Frequencies --  3004.8640              3013.1564              3016.7797
 Red. masses --     1.4498                 1.3081                 1.3697
 Frc consts  --     0.0000                 0.0000                 0.0000
 IR Inten    --    24.6175                 1.5628                11.0480
 Raman Activ --     0.0000                 0.0000                 0.0000
 Depolar     --     0.0000                 0.0000                 0.0000
 Atom AN      X      Y      Z        X      Y      Z        X      Y      Z
   1   7    -0.00   0.00   0.00    -0.00   0.00   0.00     0.00  -0.00   0.00
   2   1     0.00   0.00  -0.00    -0.00  -0.00  -0.00     0.00  -0.00   0.00
   3   6     0.00  -0.00   0.00     0.00  -0.00   0.00     0.02  -0.01   0.04
   4   1    -0.00   0.00  -0.00    -0.00   0.00  -0.00    -0.08   0.06  -0.13
   5   6     0.00   0.00  -0.00     0.00   0.00  -0.00     0.02   0.13  -0.12
   6   6    -0.00   0.00  -0.00     0.00   0.00   0.00     0.00  -0.00  -0.00
   7   1    -0.01  -0.00   0.00    -0.01  -0.00   0.00    -0.50  -0.00   0.07
   8   1     0.00  -0.00  -0.00     0.00  -0.00  -0.00     0.06  -0.14  -0.25
   9   1     0.01  -0.00   0.01     0.00  -0.00   0.01     0.38  -0.30   0.60
  10   8     0.00  -0.00  -0.00    -0.00  -0.00  -0.00    -0.00   0.00   0.00
  11   6     0.00  -0.00  -0.00     0.00   0.00   0.00    -0.00   0.00   0.00
  12   6    -0.00   0.00  -0.00     0.13   0.10  -0.04    -0.00  -0.00   0.00
  13   1     0.00   0.00   0.00    -0.22  -0.26  -0.49     0.00   0.00   0.01
  14   1    -0.00  -0.00   0.00    -0.02  -0.42   0.53     0.00   0.01  -0.01
  15   1     0.00  -0.00  -0.00    -0.21   0.34   0.09     0.00  -0.00  -0.00
  16   8     0.00   0.00   0.00    -0.00  -0.00  -0.00    -0.00  -0.00   0.00
  17   7    -0.00   0.00   0.01    -0.00  -0.00  -0.00    -0.00   0.00   0.00
  18   1    -0.00   0.00  -0.00     0.00   0.00   0.00     0.00  -0.00  -0.00
  19   6    -0.05  -0.08   0.17    -0.00  -0.00   0.00     0.00   0.00  -0.00
  20   1    -0.26  -0.17  -0.10     0.00   0.00   0.00     0.00   0.00   0.00
  21   1     0.15  -0.16   0.05    -0.00   0.00  -0.00    -0.00   0.00  -0.00
  22   1     0.29   0.60  -0.59     0.00   0.00  -0.00    -0.00  -0.01   0.01
                     52                     53                     54
                        a                      a                      a 
 Frequencies --  3032.0629              3044.0080              3055.7252
 Red. masses --     1.7634                 1.8557                 1.9831
 Frc consts  --     0.0000                 0.0000                 0.0000
 IR Inten    --     7.9215                16.1193                 6.4687
 Raman Activ --     0.0000                 0.0000                 0.0000
 Depolar     --     0.0000                 0.0000                 0.0000
 Atom AN      X      Y      Z        X      Y      Z        X      Y      Z
   1   7    -0.01   0.00   0.00     0.00  -0.00  -0.00    -0.00   0.00   0.00
   2   1    -0.00  -0.00  -0.00     0.00  -0.00  -0.00    -0.00   0.00   0.00
   3   6    -0.12   0.09  -0.21    -0.00   0.00  -0.00    -0.00   0.00  -0.00
   4   1     0.46  -0.34   0.75     0.00  -0.00   0.00     0.00  -0.00   0.00
   5   6     0.04   0.02  -0.00     0.00  -0.00   0.00     0.00  -0.00   0.00
   6   6    -0.00   0.00  -0.00    -0.00  -0.00   0.00    -0.00  -0.00  -0.00
   7   1    -0.20  -0.00   0.04    -0.00  -0.00   0.00    -0.01  -0.00   0.00
   8   1     0.02  -0.05  -0.08     0.00  -0.00   0.00     0.00  -0.00  -0.00
   9   1     0.03  -0.02   0.04    -0.00   0.00  -0.00    -0.00   0.00  -0.00
  10   8     0.00  -0.00   0.00     0.00   0.00   0.00     0.00  -0.00   0.00
  11   6     0.00  -0.00  -0.00    -0.00   0.00   0.00     0.00   0.00  -0.01
  12   6     0.00  -0.00   0.00    -0.00   0.00   0.00    -0.09   0.10  -0.27
  13   1    -0.00  -0.00  -0.00    -0.00  -0.00  -0.00     0.23   0.30   0.49
  14   1     0.00   0.00  -0.00     0.00   0.00  -0.00    -0.04  -0.43   0.53
  15   1    -0.00   0.00   0.00     0.00  -0.00  -0.00     0.13  -0.20  -0.08
  16   8     0.00   0.00   0.00     0.00   0.00  -0.00    -0.00  -0.00   0.00
  17   7     0.00   0.00   0.00    -0.00  -0.00  -0.00     0.00   0.00   0.00
  18   1     0.00  -0.00   0.00     0.00  -0.00  -0.00     0.00  -0.00   0.00
  19   6    -0.00   0.00   0.00    -0.17  -0.22  -0.01    -0.00  -0.00  -0.00
  20   1    -0.00  -0.00  -0.00     0.70   0.40   0.32     0.00   0.00   0.00
  21   1     0.00  -0.00   0.00    -0.19   0.13  -0.04    -0.00   0.00  -0.00
  22   1     0.00   0.00  -0.00     0.10   0.23  -0.25    -0.00  -0.00   0.00
                     55                     56                     57
                        a                      a                      a 
 Frequencies --  3059.5156              3074.0535              3101.2555
 Red. masses --     1.9701                 1.9783                 1.9429
 Frc consts  --     0.0000                 0.0000                 0.0000
 IR Inten    --    14.6301                 5.3215                 1.1231
 Raman Activ --     0.0000                 0.0000                 0.0000
 Depolar     --     0.0000                 0.0000                 0.0000
 Atom AN      X      Y      Z        X      Y      Z        X      Y      Z
   1   7    -0.00  -0.00   0.00     0.00  -0.00  -0.00    -0.00   0.00  -0.00
   2   1    -0.00   0.00  -0.00     0.00  -0.00  -0.00     0.00  -0.00  -0.00
   3   6    -0.02   0.02  -0.03    -0.00  -0.00   0.00    -0.00  -0.00  -0.01
   4   1     0.07  -0.05   0.11     0.00  -0.00   0.00     0.01  -0.01   0.02
   5   6    -0.27   0.04  -0.11    -0.00   0.00   0.00     0.10  -0.11  -0.24
   6   6    -0.00   0.00  -0.00     0.00   0.00   0.00    -0.00   0.00   0.00
   7   1     0.74   0.02  -0.14     0.00  -0.00  -0.00    -0.26  -0.01   0.03
   8   1    -0.06   0.08   0.10     0.00  -0.00  -0.00    -0.18   0.47   0.73
   9   1     0.25  -0.22   0.44    -0.00   0.00  -0.00     0.08  -0.07   0.10
  10   8     0.00  -0.00   0.00    -0.00  -0.00  -0.00     0.00  -0.00   0.00
  11   6     0.00  -0.00  -0.00    -0.00   0.01   0.00    -0.00   0.00   0.00
  12   6    -0.00   0.00  -0.00    -0.07   0.26   0.13     0.00   0.00   0.00
  13   1     0.00   0.00   0.00    -0.18  -0.18  -0.36    -0.00  -0.00  -0.00
  14   1    -0.00  -0.00   0.01    -0.01  -0.04   0.09    -0.00   0.00  -0.00
  15   1     0.00  -0.00  -0.00     0.46  -0.68  -0.18     0.00  -0.00  -0.00
  16   8     0.00   0.00   0.00     0.00  -0.00  -0.00     0.00  -0.00  -0.00
  17   7    -0.00   0.00   0.00    -0.00  -0.00  -0.00     0.00  -0.00   0.00
  18   1     0.00  -0.00   0.00     0.00   0.00  -0.00     0.00  -0.00   0.00
  19   6    -0.00  -0.00  -0.00     0.00   0.00  -0.00     0.05  -0.03   0.02
  20   1     0.00   0.00   0.00    -0.00  -0.00  -0.00    -0.04  -0.03  -0.02
  21   1     0.00  -0.00   0.00     0.00  -0.00   0.00    -0.13   0.12  -0.03
  22   1     0.00   0.00  -0.00    -0.00  -0.00   0.00     0.01   0.01  -0.01
                     58                     59                     60
                        a                      a                      a 
 Frequencies --  3101.4576              3493.7794              3506.5134
 Red. masses --     1.9265                 1.8655                 1.8654
 Frc consts  --     0.0000                 0.0000                 0.0000
 IR Inten    --     1.7156                11.9179                11.7175
 Raman Activ --     0.0000                 0.0000                 0.0000
 Depolar     --     0.0000                 0.0000                 0.0000
 Atom AN      X      Y      Z        X      Y      Z        X      Y      Z
   1   7    -0.00  -0.00   0.00    -0.11  -0.20  -0.11    -0.01  -0.01  -0.01
   2   1     0.00   0.00   0.00     0.42   0.76   0.42     0.02   0.04   0.02
   3   6    -0.00   0.00   0.00     0.00  -0.00  -0.00    -0.00  -0.00  -0.00
   4   1    -0.00   0.00  -0.00     0.00  -0.00   0.00     0.00  -0.00   0.00
   5   6    -0.02   0.02   0.05     0.00   0.00  -0.00    -0.00   0.00  -0.00
   6   6    -0.00   0.00  -0.00     0.00   0.00   0.00     0.00  -0.00  -0.00
   7   1     0.06   0.00  -0.01    -0.00  -0.00   0.00     0.00  -0.00   0.00
   8   1     0.04  -0.10  -0.15    -0.00   0.00   0.00     0.00  -0.00   0.00
   9   1    -0.02   0.01  -0.02     0.00   0.00   0.00     0.00  -0.00   0.00
  10   8     0.00  -0.00   0.00    -0.00   0.00  -0.00    -0.00   0.00  -0.00
  11   6     0.00  -0.00  -0.00    -0.00  -0.00   0.00    -0.00  -0.00  -0.00
  12   6     0.00  -0.00   0.00     0.00   0.00   0.00     0.00   0.00  -0.00
  13   1     0.00  -0.00  -0.00    -0.00  -0.00  -0.00     0.00   0.00   0.00
  14   1     0.00   0.00  -0.00    -0.00  -0.00   0.00     0.00  -0.00   0.00
  15   1    -0.00   0.00   0.00    -0.00   0.00   0.00     0.00  -0.00   0.00
  16   8    -0.00   0.00   0.00     0.00   0.00   0.00     0.00   0.00   0.00
  17   7     0.00  -0.00   0.00    -0.01   0.01   0.00     0.20  -0.16  -0.00
  18   1     0.01  -0.01   0.00     0.04  -0.03  -0.00    -0.73   0.63   0.01
  19   6     0.23  -0.14   0.09    -0.00   0.00  -0.00     0.00  -0.00   0.00
  20   1    -0.21  -0.15  -0.09     0.00   0.00  -0.00    -0.00   0.00   0.00
  21   1    -0.65   0.59  -0.16     0.00  -0.00   0.00    -0.00   0.00  -0.00
  22   1     0.06   0.06  -0.06    -0.00  -0.00   0.00    -0.00  -0.00   0.00
